%%MatrixMarket matrix coordinate real general
%
4225 4225 4225
1 1 6.526596064760615E-2
2 2 6.526596064760615E-2
3 3 5.4396487605201375E-2
4 4 6.526596064760615E-2
5 5 6.526596064760615E-2
6 6 5.4396487605201375E-2
7 7 4.642982514626462E-2
8 8 6.526596064760615E-2
9 9 6.526596064760615E-2
10 10 5.4396487605201375E-2
11 11 5.301489180771616E-2
12 12 3.7834341095549506E-2
13 13 3.0922160382677342E-2
14 14 4.0045850760762974E-2
15 15 5.344832150815892E-2
16 16 3.348114382361385E-2
17 17 4.049243815951081E-2
18 18 4.531671634124774E-2
19 19 6.526596064760615E-2
20 20 6.526596064760615E-2
21 21 5.4396487605201375E-2
22 22 4.642982514626462E-2
23 23 6.526596064760615E-2
24 24 6.526596064760615E-2
25 25 5.4396487605201375E-2
26 26 4.642982514626462E-2
27 27 5.397669698275833E-2
28 28 4.621176182328468E-2
29 29 6.526596064760615E-2
30 30 6.526596064760615E-2
31 31 5.4396487605201375E-2
32 32 4.642982514626462E-2
33 33 6.526596064760615E-2
34 34 6.526596064760615E-2
35 35 5.4396487605201375E-2
36 36 4.642982514626462E-2
37 37 5.2750567132574665E-2
38 38 3.5034698807351404E-2
39 39 3.0836646529764235E-2
40 40 3.823469111134745E-2
41 41 6.526596064760615E-2
42 42 6.526596064760615E-2
43 43 5.4396487605201375E-2
44 44 4.642982514626462E-2
45 45 6.526596064760615E-2
46 46 6.526596064760615E-2
47 47 5.4396487605201375E-2
48 48 5.301489180771616E-2
49 49 3.7834341095549506E-2
50 50 3.0922160382677342E-2
51 51 4.0045850760762974E-2
52 52 3.744333298720525E-2
53 53 3.356859028375976E-2
54 54 5.09634082704483E-2
55 55 2.0587374129790934E-2
56 56 2.5687442712597524E-2
57 57 3.674740372829451E-2
58 58 4.0418495728756665E-2
59 59 3.316245676682603E-2
60 60 2.9046430156592213E-2
61 61 2.430615661154358E-2
62 62 2.6978012913399615E-2
63 63 2.239553944690949E-2
64 64 3.581954797903386E-2
65 65 2.2783892689136453E-2
66 66 3.748636313404991E-2
67 67 3.8854422516717696E-2
68 68 2.5084169344200196E-2
69 69 3.404131296968833E-2
70 70 2.4246851218164552E-2
71 71 4.241754313994073E-2
72 72 3.598874326623116E-2
73 73 1.6271070250124225E-2
74 74 1.414339883770454E-2
75 75 2.3482413058309788E-2
76 76 3.569401233327325E-2
77 77 6.526596064760615E-2
78 78 6.526596064760615E-2
79 79 5.4396487605201375E-2
80 80 6.526596064760615E-2
81 81 6.526596064760615E-2
82 82 5.4396487605201375E-2
83 83 5.416249997018742E-2
84 84 4.5742283197640975E-2
85 85 6.526596064760615E-2
86 86 6.526596064760615E-2
87 87 5.4396487605201375E-2
88 88 4.642982514626462E-2
89 89 6.526596064760615E-2
90 90 6.526596064760615E-2
91 91 5.4396487605201375E-2
92 92 4.642982514626462E-2
93 93 5.2750567132574665E-2
94 94 3.5034698807351404E-2
95 95 3.0836646529764235E-2
96 96 3.823469111134745E-2
97 97 6.526596064760615E-2
98 98 6.526596064760615E-2
99 99 5.4396487605201375E-2
100 100 4.642982514626462E-2
101 101 6.526596064760615E-2
102 102 6.526596064760615E-2
103 103 5.4396487605201375E-2
104 104 4.642982514626462E-2
105 105 5.2750567132574665E-2
106 106 3.5034698807351404E-2
107 107 3.0836646529764235E-2
108 108 3.823469111134745E-2
109 109 3.796086163725361E-2
110 110 3.7654051085153246E-2
111 111 2.4569440639871473E-2
112 112 2.529247750562757E-2
113 113 5.268191060018066E-2
114 114 3.802212935840017E-2
115 115 3.919497302487269E-2
116 116 2.9970659351932032E-2
117 117 2.354978145190132E-2
118 118 3.534930323674151E-2
119 119 3.430122283132098E-2
120 120 3.832460110837259E-2
121 121 3.296055976915894E-2
122 122 1.1223366196892882E-2
123 123 4.1341633700054566E-2
124 124 3.9093592572576864E-2
125 125 6.526596064760615E-2
126 126 6.526596064760615E-2
127 127 5.4396487605201375E-2
128 128 4.642982514626462E-2
129 129 6.526596064760615E-2
130 130 6.526596064760615E-2
131 131 5.4396487605201375E-2
132 132 4.642982514626462E-2
133 133 5.2750567132574665E-2
134 134 3.5034698807351404E-2
135 135 3.0836646529764235E-2
136 136 3.823469111134745E-2
137 137 6.526596064760615E-2
138 138 6.526596064760615E-2
139 139 5.4396487605201375E-2
140 140 4.642982514626462E-2
141 141 6.526596064760615E-2
142 142 6.526596064760615E-2
143 143 5.4396487605201375E-2
144 144 4.642982514626462E-2
145 145 5.2750567132574665E-2
146 146 3.5034698807351404E-2
147 147 3.0836646529764235E-2
148 148 3.823469111134745E-2
149 149 3.796086163725361E-2
150 150 3.7654051085153246E-2
151 151 2.4569440639871473E-2
152 152 2.529247750562757E-2
153 153 6.526596064760615E-2
154 154 6.526596064760615E-2
155 155 5.4396487605201375E-2
156 156 4.642982514626462E-2
157 157 6.526596064760615E-2
158 158 6.526596064760615E-2
159 159 5.4396487605201375E-2
160 160 4.642982514626462E-2
161 161 5.2750567132574665E-2
162 162 3.5034698807351404E-2
163 163 3.0836646529764235E-2
164 164 3.823469111134745E-2
165 165 6.526596064760615E-2
166 166 6.526596064760615E-2
167 167 5.4396487605201375E-2
168 168 4.642982514626462E-2
169 169 6.526596064760615E-2
170 170 6.526596064760615E-2
171 171 5.4396487605201375E-2
172 172 4.642982514626462E-2
173 173 5.2750567132574665E-2
174 174 3.5034698807351404E-2
175 175 3.0836646529764235E-2
176 176 3.823469111134745E-2
177 177 3.796086163725361E-2
178 178 3.7654051085153246E-2
179 179 2.4569440639871473E-2
180 180 2.529247750562757E-2
181 181 5.227444759901887E-2
182 182 3.367583601167852E-2
183 183 2.7817592877741836E-2
184 184 3.700699513665532E-2
185 185 2.3447648956722644E-2
186 186 3.508194367071923E-2
187 187 2.2210642910187598E-2
188 188 2.2518655107378514E-2
189 189 2.1172794360500128E-2
190 190 2.1924759082869817E-2
191 191 2.3243140543232413E-2
192 192 3.4024838300660686E-2
193 193 5.226535984019375E-2
194 194 3.363544060631976E-2
195 195 2.7644099252167067E-2
196 196 3.694117636504647E-2
197 197 2.2360772403464103E-2
198 198 3.5051134913494805E-2
199 199 2.1481762878783797E-2
200 200 2.1318211479221964E-2
201 201 2.081526528884662E-2
202 202 2.0949796410824412E-2
203 203 2.290153976702242E-2
204 204 3.3640199853773055E-2
205 205 6.526596064760615E-2
206 206 6.526596064760615E-2
207 207 6.402401237764158E-2
208 208 6.526596064760615E-2
209 209 6.526596064760615E-2
210 210 5.4396487605201375E-2
211 211 4.642982514626462E-2
212 212 4.5502891887142176E-2
213 213 3.451973557697841E-2
214 214 3.474421540400984E-2
215 215 3.865551129682356E-2
216 216 3.876530770659743E-2
217 217 6.526596064760615E-2
218 218 6.526596064760615E-2
219 219 5.4396487605201375E-2
220 220 4.642982514626462E-2
221 221 6.526596064760615E-2
222 222 6.526596064760615E-2
223 223 5.4396487605201375E-2
224 224 4.642982514626462E-2
225 225 5.2750567132574665E-2
226 226 3.5034698807351404E-2
227 227 3.0836646529764235E-2
228 228 3.823469111134745E-2
229 229 5.2312605838517275E-2
230 230 3.382926860730449E-2
231 231 2.9614561749427438E-2
232 232 2.7051047161721426E-2
233 233 6.526596064760615E-2
234 234 6.526596064760615E-2
235 235 6.402401237764158E-2
236 236 6.526596064760615E-2
237 237 6.526596064760615E-2
238 238 5.4396487605201375E-2
239 239 4.642982514626462E-2
240 240 4.5502891887142176E-2
241 241 3.451973557697841E-2
242 242 3.474421540400984E-2
243 243 3.865551129682356E-2
244 244 3.876530770659743E-2
245 245 6.526596064760615E-2
246 246 6.526596064760615E-2
247 247 6.402401237764158E-2
248 248 6.526596064760615E-2
249 249 6.2082861785768245E-2
250 250 6.46131480630834E-2
251 251 6.2082861785768245E-2
252 252 6.46131480630834E-2
253 253 4.280622563956282E-2
254 254 4.014294407058267E-2
255 255 4.131992010804852E-2
256 256 5.3284568226734E-2
257 257 2.769193632545822E-2
258 258 3.981333053932705E-2
259 259 4.067956363330805E-2
260 260 4.5358241536193805E-2
261 261 4.4455513774032285E-2
262 262 2.586737661985336E-2
263 263 2.5479551072256773E-2
264 264 3.817407320912602E-2
265 265 6.526596064760615E-2
266 266 6.526596064760615E-2
267 267 6.402401237764158E-2
268 268 6.526596064760615E-2
269 269 6.2082861785768245E-2
270 270 6.46131480630834E-2
271 271 6.2082861785768245E-2
272 272 6.46131480630834E-2
273 273 4.280622563956282E-2
274 274 4.014294407058267E-2
275 275 4.131992010804852E-2
276 276 5.328456822673399E-2
277 277 2.769193632545822E-2
278 278 3.981333053932704E-2
279 279 4.0679563633308026E-2
280 280 4.535824153619382E-2
281 281 4.445551377403227E-2
282 282 2.5867376619853354E-2
283 283 2.5479551072256766E-2
284 284 3.817407320912602E-2
285 285 5.2104527801817804E-2
286 286 3.2347566954549004E-2
287 287 3.9258589868994775E-2
288 288 1.7586949972781155E-2
289 289 3.233186947064374E-2
290 290 1.896039389997074E-2
291 291 3.4591737747901655E-2
292 292 5.225656423864576E-2
293 293 3.9845445700424434E-2
294 294 3.369159206640495E-2
295 295 2.9227295919712827E-2
296 296 3.510354985704928E-2
297 297 2.4506124213729642E-2
298 298 2.446361789155108E-2
299 299 3.195962415666476E-2
300 300 1.3236221338200255E-2
301 301 7.62951846821143E-3
302 302 3.791121352457377E-2
303 303 3.564070747684577E-2
304 304 2.435328453234815E-2
305 305 3.5519650314048384E-2
306 306 2.3903096830058236E-2
307 307 3.328278698093126E-2
308 308 3.327730858294595E-2
309 309 2.2761384358513825E-2
310 310 3.646388582154961E-2
311 311 1.5507909816343582E-2
312 312 2.3805757373920117E-2
313 313 6.41011776439343E-3
314 314 6.526596064760615E-2
315 315 6.526596064760615E-2
316 316 5.4396487605201375E-2
317 317 6.526596064760615E-2
318 318 6.526596064760615E-2
319 319 5.4396487605201375E-2
320 320 5.388882266798524E-2
321 321 3.8064968968498966E-2
322 322 4.1732646192950924E-2
323 323 4.542923573901349E-2
324 324 6.526596064760615E-2
325 325 6.526596064760615E-2
326 326 5.4396487605201375E-2
327 327 4.642982514626462E-2
328 328 6.526596064760615E-2
329 329 6.526596064760615E-2
330 330 5.4396487605201375E-2
331 331 4.642982514626462E-2
332 332 5.2750567132574665E-2
333 333 3.5034698807351404E-2
334 334 3.0836646529764235E-2
335 335 3.823469111134745E-2
336 336 6.526596064760615E-2
337 337 6.526596064760615E-2
338 338 5.4396487605201375E-2
339 339 4.642982514626462E-2
340 340 6.526596064760615E-2
341 341 6.526596064760615E-2
342 342 5.4396487605201375E-2
343 343 4.642982514626462E-2
344 344 5.2750567132574665E-2
345 345 3.50346988073514E-2
346 346 3.0836646529764224E-2
347 347 3.823469111134744E-2
348 348 3.796086163725361E-2
349 349 3.765405108515326E-2
350 350 2.4569440639871473E-2
351 351 2.529247750562757E-2
352 352 3.7040728997984836E-2
353 353 5.20611646276591E-2
354 354 3.428001624207106E-2
355 355 2.6035231329732556E-2
356 356 2.8621606622337117E-2
357 357 3.573923135777622E-2
358 358 6.526596064760615E-2
359 359 6.526596064760615E-2
360 360 6.526596064760615E-2
361 361 5.4396487605201375E-2
362 362 4.642982514626462E-2
363 363 5.313557024496396E-2
364 364 4.17417921196574E-2
365 365 6.526596064760615E-2
366 366 6.526596064760615E-2
367 367 5.4396487605201375E-2
368 368 6.526596064760615E-2
369 369 6.526596064760615E-2
370 370 5.4396487605201375E-2
371 371 5.388882266798524E-2
372 372 3.8064968968498966E-2
373 373 4.1732646192950924E-2
374 374 4.542923573901349E-2
375 375 3.106570294009634E-2
376 376 5.24788429171063E-2
377 377 4.44954624039987E-2
378 378 5.177997297456916E-2
379 379 2.4950003451083606E-2
380 380 2.0981534995112672E-2
381 381 6.526596064760615E-2
382 382 6.2082861785768245E-2
383 383 6.46131480630834E-2
384 384 6.2082861785768245E-2
385 385 6.46131480630834E-2
386 386 4.280622563956281E-2
387 387 4.014294407058267E-2
388 388 4.570008018642512E-2
389 389 3.0278637942833402E-2
390 390 5.224457974816923E-2
391 391 3.3570042385416644E-2
392 392 3.838525603595001E-2
393 393 6.2082861785768245E-2
394 394 6.46131480630834E-2
395 395 6.2082861785768245E-2
396 396 6.46131480630834E-2
397 397 6.463871256154528E-2
398 398 4.272531614363301E-2
399 399 4.5616448041285756E-2
400 400 3.0117472541862263E-2
401 401 3.315355310785055E-2
402 402 6.526596064760615E-2
403 403 6.526596064760615E-2
404 404 5.4396487605201375E-2
405 405 5.334439773767173E-2
406 406 3.3265266906056225E-2
407 407 3.553756274303821E-2
408 408 2.9163937299969495E-2
409 409 3.382843706413472E-2
410 410 3.98486835135035E-2
411 411 3.564582180689043E-2
412 412 2.6424019174789128E-2
413 413 4.218850299420124E-2
414 414 1.3983807526968246E-2
415 415 6.526596064760615E-2
416 416 6.526596064760615E-2
417 417 5.4396487605201375E-2
418 418 6.2082861785768245E-2
419 419 6.46131480630834E-2
420 420 6.2082861785768245E-2
421 421 6.46131480630834E-2
422 422 6.2082861785768245E-2
423 423 6.46131480630834E-2
424 424 6.463871256154528E-2
425 425 4.272531614363301E-2
426 426 4.5616448041285756E-2
427 427 3.0117472541862263E-2
428 428 3.315355310785055E-2
429 429 3.6756984946119106E-2
430 430 3.9745273436446606E-2
431 431 4.5614643744695246E-2
432 432 5.3285927562236574E-2
433 433 3.283787147260707E-2
434 434 3.542265198469315E-2
435 435 2.719326747133467E-2
436 436 3.8678339038812E-2
437 437 1.819402772800415E-2
438 438 3.615093086446368E-2
439 439 6.526596064760615E-2
440 440 6.526596064760615E-2
441 441 5.4396487605201375E-2
442 442 6.526596064760615E-2
443 443 6.526596064760615E-2
444 444 5.4396487605201375E-2
445 445 5.379739268511418E-2
446 446 3.804722139997026E-2
447 447 3.559499098081428E-2
448 448 3.0189315147793192E-2
449 449 4.029476510033608E-2
450 450 5.1568631593576525E-2
451 451 3.97746365843784E-2
452 452 3.5633810203225355E-2
453 453 2.428618945652607E-2
454 454 4.1972861334041586E-2
455 455 1.2941298195167459E-2
456 456 5.225785191744656E-2
457 457 3.359444591655152E-2
458 458 2.754488429325835E-2
459 459 2.6483491251131863E-2
460 460 3.307273056009071E-2
461 461 2.3088917188922177E-2
462 462 3.2646076797291736E-2
463 463 1.3991734876889055E-2
464 464 1.5484876827606643E-2
465 465 5.230463144451164E-2
466 466 3.3870864286686446E-2
467 467 2.7831536082696902E-2
468 468 3.6997151920623535E-2
469 469 2.238726900339545E-2
470 470 2.0737706045258444E-2
471 471 3.506190186702191E-2
472 472 2.88898162549562E-2
473 473 3.385959572968286E-2
474 474 1.699607213185865E-2
475 475 3.491027770265464E-2
476 476 1.4251221396431583E-2
477 477 3.386937416717859E-2
478 478 5.8754696335466365E-3
479 479 6.526596064760615E-2
480 480 6.526596064760615E-2
481 481 6.402401237764158E-2
482 482 6.526596064760615E-2
483 483 6.526596064760615E-2
484 484 5.4396487605201375E-2
485 485 4.642982514626462E-2
486 486 4.5502891887142176E-2
487 487 3.451973557697841E-2
488 488 3.474421540400984E-2
489 489 3.865551129682356E-2
490 490 3.876530770659743E-2
491 491 6.526596064760615E-2
492 492 6.526596064760615E-2
493 493 5.4396487605201375E-2
494 494 6.526596064760615E-2
495 495 6.526596064760615E-2
496 496 6.402401237764158E-2
497 497 5.41800927581812E-2
498 498 4.574258784073311E-2
499 499 3.99058611411499E-2
500 500 3.4395427635428626E-2
501 501 2.8072590991467743E-2
502 502 3.2117923124020134E-2
503 503 3.71846758139823E-2
504 504 6.526596064760615E-2
505 505 6.526596064760615E-2
506 506 6.402401237764158E-2
507 507 6.526596064760615E-2
508 508 6.2082861785768245E-2
509 509 6.46131480630834E-2
510 510 6.2082861785768245E-2
511 511 6.46131480630834E-2
512 512 4.280622563956281E-2
513 513 4.014294407058267E-2
514 514 4.131992010804852E-2
515 515 5.3284568226734E-2
516 516 2.769193632545822E-2
517 517 3.981333053932705E-2
518 518 4.067956363330805E-2
519 519 4.535824153619382E-2
520 520 4.4455513774032285E-2
521 521 2.5867376619853354E-2
522 522 2.5479551072256773E-2
523 523 6.526596064760615E-2
524 524 6.526596064760615E-2
525 525 5.4396487605201375E-2
526 526 5.453904525734428E-2
527 527 6.526596064760615E-2
528 528 6.526596064760615E-2
529 529 5.4396487605201375E-2
530 530 6.526596064760615E-2
531 531 6.2082861785768245E-2
532 532 6.46131480630834E-2
533 533 6.463871256154528E-2
534 534 6.2082861785768245E-2
535 535 6.2082861785768245E-2
536 536 6.46131480630834E-2
537 537 4.280787454649309E-2
538 538 4.023902957142857E-2
539 539 4.155492066774318E-2
540 540 6.526596064760615E-2
541 541 6.2082861785768245E-2
542 542 5.889976292393033E-2
543 543 5.0726650942394674E-2
544 544 5.023578015806016E-2
545 545 4.130984928084147E-2
546 546 5.3455408917833944E-2
547 547 5.293733336942515E-2
548 548 3.6670168523659494E-2
549 549 3.9838437063267444E-2
550 550 3.920075115542933E-2
551 551 3.9155047554407E-2
552 552 4.5510819054844685E-2
553 553 3.915378881750524E-2
554 554 3.3154480099453466E-2
555 555 3.5026592747607374E-2
556 556 2.0321209630733385E-2
557 557 3.631529522454569E-2
558 558 4.2684095476477876E-2
559 559 4.5135257282582435E-2
560 560 2.961565465681072E-2
561 561 5.161473436204672E-2
562 562 2.0028473900055774E-2
563 563 1.5838533893189063E-2
564 564 3.596084219852855E-2
565 565 3.521388715869238E-2
566 566 3.4806926100823955E-2
567 567 5.271656511809461E-2
568 568 4.322350748264295E-2
569 569 2.4839551821556997E-2
570 570 2.393590255620223E-2
571 571 2.9903719402297985E-2
572 572 2.472270666469057E-2
573 573 3.909283759476847E-2
574 574 3.572344872533673E-2
575 575 5.104852831838151E-2
576 576 1.849308423665361E-2
577 577 2.4471597431162877E-2
578 578 2.5842865099233087E-2
579 579 3.793107852613294E-2
580 580 4.2903908179974845E-2
581 581 2.633593748078627E-2
582 582 2.7247176448167938E-2
583 583 3.487644998535086E-2
584 584 4.971729996254578E-2
585 585 1.9521485236719215E-2
586 586 3.179672528888649E-2
587 587 2.3005511674819405E-2
588 588 7.848551371136178E-3
589 589 3.9018565192866755E-2
590 590 6.526596064760615E-2
591 591 6.526596064760615E-2
592 592 5.4396487605201375E-2
593 593 4.642982514626462E-2
594 594 6.526596064760615E-2
595 595 6.526596064760615E-2
596 596 5.4396487605201375E-2
597 597 5.301489180771616E-2
598 598 3.7834341095549506E-2
599 599 3.0922160382677342E-2
600 600 4.0045850760762974E-2
601 601 6.526596064760615E-2
602 602 6.526596064760615E-2
603 603 5.4396487605201375E-2
604 604 4.642982514626462E-2
605 605 6.526596064760615E-2
606 606 6.526596064760615E-2
607 607 6.402401237764158E-2
608 608 5.3033038665449E-2
609 609 3.8367778461546216E-2
610 610 3.071405895165961E-2
611 611 3.3755924804417574E-2
612 612 3.824023274627743E-2
613 613 3.828118340165841E-2
614 614 2.4638219457308787E-2
615 615 2.6880811775994128E-2
616 616 5.267522042248918E-2
617 617 3.767123548776459E-2
618 618 3.362336982937323E-2
619 619 3.707673208298786E-2
620 620 1.9593233330627034E-2
621 621 4.894445691222637E-2
622 622 1.568278872140597E-2
623 623 1.2315243837468374E-2
624 624 3.285946158736351E-2
625 625 5.30135688043862E-2
626 626 3.269113471944749E-2
627 627 3.01900913979118E-2
628 628 2.7001732900421505E-2
629 629 3.621051463733691E-2
630 630 2.327775824934271E-2
631 631 2.53254204620907E-2
632 632 2.191776201354828E-2
633 633 3.0113115138813002E-2
634 634 2.2211072889308545E-2
635 635 3.60289393901543E-2
636 636 2.4492794832580496E-2
637 637 3.230087818077013E-2
638 638 1.3511564595353373E-2
639 639 3.47028207162523E-2
640 640 2.9924122790802244E-2
641 641 2.5155326297399437E-2
642 642 2.9283799001133138E-2
643 643 1.19813969550217E-2
644 644 3.6851850987340076E-2
645 645 1.4847919038092199E-2
646 646 4.518394079460397E-3
647 647 2.2290470782791262E-2
648 648 2.507945534986836E-2
649 649 4.2456787933722415E-2
650 650 2.378777078107267E-2
651 651 2.812782337333499E-2
652 652 2.1697433588199155E-2
653 653 3.517340892513774E-2
654 654 1.990943975875128E-2
655 655 3.434104712431524E-2
656 656 1.984798422151729E-2
657 657 2.09620860658204E-2
658 658 1.9726131740605266E-2
659 659 1.9673474052227996E-2
660 660 1.918858385210656E-2
661 661 1.9028556279323993E-2
662 662 1.9138056438764033E-2
663 663 1.8759940401260194E-2
664 664 2.160484088831296E-2
665 665 3.213167234708956E-2
666 666 4.7349007562863206E-2
667 667 2.697444084313354E-2
668 668 1.567311810998341E-2
669 669 4.261796173532081E-3
670 670 5.2317659149420104E-2
671 671 3.394023288669318E-2
672 672 2.7613370425700678E-2
673 673 3.271659289362805E-2
674 674 2.92415238459652E-2
675 675 4.814957559409999E-2
676 676 1.7000995918450505E-2
677 677 3.635713568396265E-2
678 678 3.152073100995815E-2
679 679 3.656838101603072E-2
680 680 3.321844900729981E-2
681 681 1.715354021057659E-2
682 682 2.2464334791075864E-2
683 683 2.3835949129958626E-2
684 684 2.906904218725426E-2
685 685 9.214833183638919E-3
686 686 3.349044938526839E-2
687 687 2.057669886899739E-2
688 688 3.193824081751031E-2
689 689 1.1870717365363485E-2
690 690 3.251626114514763E-2
691 691 1.1520312271764635E-2
692 692 3.6714682503930146E-2
693 693 1.178940120405511E-2
694 694 3.2889705606041014E-2
695 695 6.1426370352836435E-3
696 696 5.226559197751462E-2
697 697 3.363425744253272E-2
698 698 2.7648618388291444E-2
699 699 3.6875797078171985E-2
700 700 2.2143257017348737E-2
701 701 3.49607470590584E-2
702 702 2.106415752825123E-2
703 703 2.112538751071471E-2
704 704 2.0368337999989494E-2
705 705 1.9820724661279873E-2
706 706 1.9454525635877403E-2
707 707 3.211632465846335E-2
708 708 4.3212387904963595E-2
709 709 2.2326022355321495E-2
710 710 2.3393189962933745E-2
711 711 2.2559862689838187E-2
712 712 2.0987462858557016E-2
713 713 2.0600589556270664E-2
714 714 3.2772129462502436E-2
715 715 1.928731121800235E-2
716 716 2.0132168031328314E-2
717 717 1.932840849966265E-2
718 718 3.240048382700973E-2
719 719 1.855166081502987E-2
720 720 3.3061619318307936E-2
721 721 1.1806280713072022E-2
722 722 2.9153310682127606E-2
723 723 1.3053810135175488E-2
724 724 3.0699233702150947E-3
725 725 6.526596064760615E-2
726 726 6.2082861785768245E-2
727 727 6.46131480630834E-2
728 728 6.2082861785768245E-2
729 729 6.46131480630834E-2
730 730 4.280622563956281E-2
731 731 4.014294407058267E-2
732 732 4.570008018642512E-2
733 733 3.027863794283338E-2
734 734 5.224457974816924E-2
735 735 3.357004238541664E-2
736 736 3.838525603595001E-2
737 737 6.526596064760615E-2
738 738 6.526596064760615E-2
739 739 5.4396487605201375E-2
740 740 4.02298940568539E-2
741 741 3.712517237964512E-2
742 742 2.8327920471766733E-2
743 743 3.966990243647499E-2
744 744 3.981334488496928E-2
745 745 6.526596064760615E-2
746 746 6.526596064760615E-2
747 747 5.4396487605201375E-2
748 748 4.642982514626462E-2
749 749 6.2082861785768245E-2
750 750 6.46131480630834E-2
751 751 6.2082861785768245E-2
752 752 6.46131480630834E-2
753 753 6.463871256154528E-2
754 754 4.272531614363301E-2
755 755 4.5616448041285756E-2
756 756 3.0117472541862263E-2
757 757 3.315355310785055E-2
758 758 6.526596064760615E-2
759 759 6.526596064760615E-2
760 760 5.4396487605201375E-2
761 761 5.3344397737671745E-2
762 762 3.326526690605622E-2
763 763 3.5537562743038216E-2
764 764 2.9163937299969484E-2
765 765 5.2454423295571845E-2
766 766 3.4976434199213875E-2
767 767 2.9886287698598798E-2
768 768 3.816676273302834E-2
769 769 3.382704525306993E-2
770 770 3.751165095263557E-2
771 771 3.5203167702485806E-2
772 772 2.6361919010563225E-2
773 773 3.5426214575038285E-2
774 774 2.999757632618755E-2
775 775 1.2180266712833366E-2
776 776 2.1364772619669778E-2
777 777 3.5386922409528204E-2
778 778 1.4537879208008407E-2
779 779 6.526596064760615E-2
780 780 6.526596064760615E-2
781 781 5.4396487605201375E-2
782 782 4.642982514626462E-2
783 783 6.526596064760615E-2
784 784 6.526596064760615E-2
785 785 5.4396487605201375E-2
786 786 5.301489180771616E-2
787 787 3.7834341095549506E-2
788 788 3.0922160382677342E-2
789 789 4.0045850760762974E-2
790 790 6.526596064760615E-2
791 791 6.526596064760615E-2
792 792 5.4396487605201375E-2
793 793 6.526596064760615E-2
794 794 6.526596064760615E-2
795 795 5.4396487605201375E-2
796 796 5.388882266798524E-2
797 797 3.786854818719091E-2
798 798 3.4324129517365916E-2
799 799 4.0403654378890756E-2
800 800 3.828633711810815E-2
801 801 3.838571803742042E-2
802 802 2.4761962592627623E-2
803 803 2.720864946304205E-2
804 804 5.2269411840208405E-2
805 805 3.364236418781858E-2
806 806 2.762555922307071E-2
807 807 3.690720478536741E-2
808 808 2.2137757000973264E-2
809 809 3.5079319899940994E-2
810 810 2.1230023418075377E-2
811 811 2.2700203171632877E-2
812 812 2.0946349580714466E-2
813 813 3.350873772926657E-2
814 814 2.173117567239292E-2
815 815 2.3974612020154128E-2
816 816 2.3136782330516067E-2
817 817 6.526596064760615E-2
818 818 6.526596064760615E-2
819 819 5.4396487605201375E-2
820 820 6.526596064760615E-2
821 821 6.526596064760615E-2
822 822 5.4396487605201375E-2
823 823 5.416249997018742E-2
824 824 4.5742283197640975E-2
825 825 6.526596064760615E-2
826 826 6.526596064760615E-2
827 827 5.4396487605201375E-2
828 828 4.642982514626462E-2
829 829 6.526596064760615E-2
830 830 6.526596064760615E-2
831 831 5.4396487605201375E-2
832 832 5.301489180771616E-2
833 833 3.7834341095549506E-2
834 834 3.0922160382677342E-2
835 835 4.0045850760762974E-2
836 836 6.526596064760615E-2
837 837 6.526596064760615E-2
838 838 5.4396487605201375E-2
839 839 4.642982514626462E-2
840 840 6.526596064760615E-2
841 841 6.526596064760615E-2
842 842 5.4396487605201375E-2
843 843 5.301489180771616E-2
844 844 3.7834341095549506E-2
845 845 3.0922160382677342E-2
846 846 4.0045850760762974E-2
847 847 3.824015018118879E-2
848 848 3.8278708530627745E-2
849 849 2.4636299863979146E-2
850 850 2.6874291946344924E-2
851 851 3.7137903650081655E-2
852 852 5.259675814948017E-2
853 853 3.3876038479982336E-2
854 854 3.0661240736079096E-2
855 855 3.70092769603387E-2
856 856 3.251873683134387E-2
857 857 2.322253122857099E-2
858 858 2.719912441580231E-2
859 859 3.475390320734956E-2
860 860 5.294719686640703E-2
861 861 3.240378172600752E-2
862 862 3.0105438117054406E-2
863 863 2.681792032925919E-2
864 864 3.606819200273825E-2
865 865 2.2080726651967964E-2
866 866 2.288327535490531E-2
867 867 2.1489268405508313E-2
868 868 3.389206405759267E-2
869 869 2.2042026106203375E-2
870 870 3.196633262371757E-2
871 871 3.36664953177056E-2
872 872 2.581385529637314E-2
873 873 3.288826643935074E-2
874 874 1.6139708400164286E-2
875 875 3.4832000248163394E-2
876 876 3.156012983337464E-2
877 877 1.330925835588902E-2
878 878 3.292287989024722E-2
879 879 2.8395135788321323E-2
880 880 7.912045868098093E-3
881 881 3.524422378511982E-2
882 882 2.4041401486418472E-2
883 883 3.180932501761904E-2
884 884 1.135269230817394E-2
885 885 3.442854002066166E-2
886 886 2.9906144438029386E-2
887 887 4.713510634911191E-2
888 888 1.1895722800777464E-2
889 889 2.1924516503591042E-2
890 890 2.3315415610999684E-2
891 891 1.2543916870759416E-2
892 892 3.309251706779852E-2
893 893 2.5357862688652547E-2
894 894 3.1845325562008864E-2
895 895 1.4029490757780736E-2
896 896 3.276173770633747E-2
897 897 1.2552135395361154E-2
898 898 3.633533777376348E-2
899 899 1.2250775072056212E-2
900 900 5.226235135729255E-2
901 901 4.1154512736965874E-2
902 902 1.2861732055218128E-2
903 903 8.191459970089772E-3
904 904 3.180022642398615E-3
905 905 5.175736613675802E-2
906 906 3.235256691278213E-2
907 907 2.533949957448369E-2
908 908 2.646384683786349E-2
909 909 3.492606482988351E-2
910 910 2.1795310360559827E-2
911 911 2.313283708238808E-2
912 912 2.112309286259358E-2
913 913 3.38829242029352E-2
914 914 1.9331094578769737E-2
915 915 2.2145570539066375E-2
916 916 3.1848350347176424E-2
917 917 1.1099725508150955E-2
918 918 3.375396281369849E-2
919 919 2.943238280596036E-2
920 920 3.3810765509081325E-2
921 921 2.986907945990299E-2
922 922 3.229698813720281E-2
923 923 1.746922668418403E-2
924 924 2.0995613770804954E-2
925 925 1.2310062948709476E-2
926 926 3.13993737987284E-2
927 927 1.193635577139018E-2
928 928 3.132881092767557E-2
929 929 1.144094450429449E-2
930 930 3.130369420201966E-2
931 931 1.116354866597708E-2
932 932 3.130855572564473E-2
933 933 1.1010817567889599E-2
934 934 3.1381031711331324E-2
935 935 1.0931145913518785E-2
936 936 3.165605035441505E-2
937 937 1.0910038201438715E-2
938 938 3.243116337592058E-2
939 939 1.0991742954972334E-2
940 940 3.670227874014068E-2
941 941 1.1527634616193345E-2
942 942 3.2763271217285624E-2
943 943 2.7618471314142714E-3
944 944 3.6711055078925234E-2
945 945 5.153853812572808E-2
946 946 3.6818619726733184E-2
947 947 3.733100966504852E-2
948 948 1.805872819867198E-2
949 949 3.30964508000062E-2
950 950 1.4744183811719873E-2
951 951 2.6124777805119792E-2
952 952 3.225517530178478E-2
953 953 1.295638628018452E-2
954 954 5.2305619060423976E-2
955 955 4.348740136682731E-2
956 956 5.0371190252975866E-2
957 957 3.390811469330264E-2
958 958 1.210046641630311E-2
959 959 1.6747523734539728E-2
960 960 2.7893041081644976E-2
961 961 6.629577539060153E-3
962 962 7.130268255504804E-3
963 963 6.526596064760615E-2
964 964 6.526596064760615E-2
965 965 5.4396487605201375E-2
966 966 6.526596064760615E-2
967 967 6.526596064760615E-2
968 968 5.4396487605201375E-2
969 969 4.642982514626462E-2
970 970 5.397925241170746E-2
971 971 4.571203038317983E-2
972 972 6.526596064760615E-2
973 973 6.526596064760615E-2
974 974 5.4396487605201375E-2
975 975 6.526596064760615E-2
976 976 6.526596064760615E-2
977 977 5.4396487605201375E-2
978 978 4.642982514626462E-2
979 979 5.301489180771616E-2
980 980 3.7834341095549506E-2
981 981 3.0922160382677335E-2
982 982 4.0045850760762974E-2
983 983 6.526596064760615E-2
984 984 6.526596064760615E-2
985 985 5.4396487605201375E-2
986 986 4.642982514626462E-2
987 987 6.526596064760615E-2
988 988 6.526596064760615E-2
989 989 5.4396487605201375E-2
990 990 4.642982514626462E-2
991 991 5.2750567132574665E-2
992 992 3.5034698807351404E-2
993 993 3.0836646529764235E-2
994 994 3.823469111134745E-2
995 995 3.9988203436128814E-2
996 996 3.612077617252122E-2
997 997 2.3667657772956655E-2
998 998 5.091228451161539E-2
999 999 1.869696368907149E-2
1000 1000 3.537781481884918E-2
1001 1001 5.3062181791956584E-2
1002 1002 3.1393859539163724E-2
1003 1003 3.252137412429468E-2
1004 1004 2.6620167802660032E-2
1005 1005 2.7454966758085057E-2
1006 1006 2.2739229121741495E-2
1007 1007 2.7157145048558016E-2
1008 1008 2.197628359892481E-2
1009 1009 4.514260052955207E-2
1010 1010 6.526596064760615E-2
1011 1011 6.526596064760615E-2
1012 1012 5.4396487605201375E-2
1013 1013 6.526596064760615E-2
1014 1014 6.526596064760615E-2
1015 1015 5.4396487605201375E-2
1016 1016 4.642982514626462E-2
1017 1017 5.301489180771616E-2
1018 1018 3.7834341095549506E-2
1019 1019 3.0922160382677335E-2
1020 1020 4.0045850760762974E-2
1021 1021 6.526596064760615E-2
1022 1022 6.526596064760615E-2
1023 1023 5.4396487605201375E-2
1024 1024 6.526596064760615E-2
1025 1025 6.526596064760615E-2
1026 1026 5.4396487605201375E-2
1027 1027 4.642982514626462E-2
1028 1028 5.301489180771616E-2
1029 1029 3.7834341095549506E-2
1030 1030 3.0922160382677335E-2
1031 1031 4.0045850760762974E-2
1032 1032 3.9752436336882226E-2
1033 1033 3.682248681686617E-2
1034 1034 2.4636299863979163E-2
1035 1035 2.6874291946344952E-2
1036 1036 3.7137903650081676E-2
1037 1037 6.526596064760615E-2
1038 1038 6.526596064760615E-2
1039 1039 5.4396487605201375E-2
1040 1040 4.642982514626462E-2
1041 1041 6.526596064760615E-2
1042 1042 6.526596064760615E-2
1043 1043 5.4396487605201375E-2
1044 1044 4.642982514626462E-2
1045 1045 5.2750567132574665E-2
1046 1046 3.5034698807351404E-2
1047 1047 3.0836646529764235E-2
1048 1048 3.823469111134745E-2
1049 1049 6.526596064760615E-2
1050 1050 6.526596064760615E-2
1051 1051 5.4396487605201375E-2
1052 1052 6.526596064760615E-2
1053 1053 6.526596064760615E-2
1054 1054 5.4396487605201375E-2
1055 1055 5.416249997018742E-2
1056 1056 4.5742283197640975E-2
1057 1057 4.022123847220174E-2
1058 1058 3.461648678293743E-2
1059 1059 3.883751203827966E-2
1060 1060 3.304844908081322E-2
1061 1061 3.7646440390172245E-2
1062 1062 4.137494253635377E-2
1063 1063 5.300716365768376E-2
1064 1064 3.022428107008602E-2
1065 1065 3.2602461890849366E-2
1066 1066 2.6953098201829007E-2
1067 1067 3.6132266503605674E-2
1068 1068 2.475674045476952E-2
1069 1069 2.2328597384212088E-2
1070 1070 2.1969454418682813E-2
1071 1071 3.445599391592148E-2
1072 1072 2.256824805875458E-2
1073 1073 5.267260992076435E-2
1074 1074 3.542620139721095E-2
1075 1075 3.386795212170631E-2
1076 1076 2.360210599304163E-2
1077 1077 4.9698258274214736E-2
1078 1078 2.081749709547092E-2
1079 1079 3.422327601364705E-2
1080 1080 1.7887811026520147E-2
1081 1081 3.484759664888004E-2
1082 1082 1.6018561024716254E-2
1083 1083 1.006758750671791E-2
1084 1084 6.526596064760615E-2
1085 1085 6.526596064760615E-2
1086 1086 5.4396487605201375E-2
1087 1087 6.526596064760615E-2
1088 1088 6.526596064760615E-2
1089 1089 5.4396487605201375E-2
1090 1090 4.642982514626462E-2
1091 1091 5.301489180771616E-2
1092 1092 3.7834341095549506E-2
1093 1093 3.0922160382677335E-2
1094 1094 4.0045850760762974E-2
1095 1095 6.526596064760615E-2
1096 1096 6.526596064760615E-2
1097 1097 5.4396487605201375E-2
1098 1098 4.642982514626462E-2
1099 1099 6.526596064760615E-2
1100 1100 6.526596064760615E-2
1101 1101 5.4396487605201375E-2
1102 1102 4.642982514626462E-2
1103 1103 5.2750567132574665E-2
1104 1104 3.5034698807351404E-2
1105 1105 3.0836646529764235E-2
1106 1106 3.823469111134745E-2
1107 1107 3.963347641424394E-2
1108 1108 3.680730746399234E-2
1109 1109 2.4634329333489264E-2
1110 1110 2.5308342790155987E-2
1111 1111 6.526596064760615E-2
1112 1112 5.501746174018367E-2
1113 1113 6.2082861785768245E-2
1114 1114 6.46131480630834E-2
1115 1115 6.2082861785768245E-2
1116 1116 6.46131480630834E-2
1117 1117 6.45381807608503E-2
1118 1118 4.280595282202674E-2
1119 1119 4.0127045667857734E-2
1120 1120 4.0692781641744454E-2
1121 1121 2.806099400055646E-2
1122 1122 5.250384471002132E-2
1123 1123 4.590825801539792E-2
1124 1124 6.526596064760615E-2
1125 1125 6.526596064760615E-2
1126 1126 5.4396487605201375E-2
1127 1127 6.526596064760615E-2
1128 1128 5.501746174018367E-2
1129 1129 6.2082861785768245E-2
1130 1130 6.46131480630834E-2
1131 1131 6.2082861785768245E-2
1132 1132 6.46131480630834E-2
1133 1133 6.45381807608503E-2
1134 1134 4.280595282202674E-2
1135 1135 4.0127045667857734E-2
1136 1136 4.0692781641744454E-2
1137 1137 2.806099400055646E-2
1138 1138 5.250384471002132E-2
1139 1139 4.590825801539792E-2
1140 1140 2.8707074208542325E-2
1141 1141 4.329913095952188E-2
1142 1142 4.592808356909436E-2
1143 1143 2.9626188702743132E-2
1144 1144 3.611761680334255E-2
1145 1145 3.872381868649712E-2
1146 1146 3.765605954316465E-2
1147 1147 1.9773098391591203E-2
1148 1148 3.561912989637321E-2
1149 1149 1.7905138880230636E-2
1150 1150 2.6530136490048924E-2
1151 1151 2.2240899568953136E-2
1152 1152 2.7213316259069118E-2
1153 1153 3.491725812646831E-2
1154 1154 6.526596064760615E-2
1155 1155 6.526596064760615E-2
1156 1156 5.4396487605201375E-2
1157 1157 4.642982514626462E-2
1158 1158 6.526596064760615E-2
1159 1159 6.526596064760615E-2
1160 1160 5.4396487605201375E-2
1161 1161 4.642982514626462E-2
1162 1162 5.2750567132574665E-2
1163 1163 3.5034698807351404E-2
1164 1164 3.0836646529764235E-2
1165 1165 3.823469111134745E-2
1166 1166 6.526596064760615E-2
1167 1167 6.526596064760615E-2
1168 1168 5.4396487605201375E-2
1169 1169 4.642982514626462E-2
1170 1170 6.526596064760615E-2
1171 1171 6.526596064760615E-2
1172 1172 5.4396487605201375E-2
1173 1173 4.642982514626462E-2
1174 1174 5.2750567132574665E-2
1175 1175 3.5034698807351404E-2
1176 1176 3.0836646529764235E-2
1177 1177 3.823469111134745E-2
1178 1178 3.927403383362989E-2
1179 1179 3.6395044862990895E-2
1180 1180 2.4569440639871473E-2
1181 1181 2.529247750562757E-2
1182 1182 3.7040728997984836E-2
1183 1183 5.24762134001899E-2
1184 1184 2.590761130712585E-2
1185 1185 4.224316797316643E-2
1186 1186 2.4900760598224773E-2
1187 1187 2.65793416302888E-2
1188 1188 3.537743014886631E-2
1189 1189 2.2896787391060727E-2
1190 1190 3.4441960233051086E-2
1191 1191 2.626267531352454E-2
1192 1192 4.248988597041053E-2
1193 1193 3.550423795995569E-2
1194 1194 3.2653030857881925E-2
1195 1195 3.628073862862371E-2
1196 1196 3.378962531636395E-2
1197 1197 1.8691364002540522E-2
1198 1198 2.1273001246921806E-2
1199 1199 2.1448830690826266E-2
1200 1200 2.0577249942428905E-2
1201 1201 2.120436664439061E-2
1202 1202 2.3000234849378506E-2
1203 1203 3.367168650197685E-2
1204 1204 8.985002071236863E-3
1205 1205 6.526596064760615E-2
1206 1206 6.526596064760615E-2
1207 1207 5.4396487605201375E-2
1208 1208 6.526596064760615E-2
1209 1209 6.526596064760615E-2
1210 1210 5.4396487605201375E-2
1211 1211 4.642982514626462E-2
1212 1212 6.526596064760615E-2
1213 1213 6.526596064760615E-2
1214 1214 5.4396487605201375E-2
1215 1215 5.301489180771616E-2
1216 1216 3.7834341095549506E-2
1217 1217 3.0922160382677342E-2
1218 1218 4.0045850760762974E-2
1219 1219 5.344832150815892E-2
1220 1220 3.348114382361385E-2
1221 1221 4.049243815951081E-2
1222 1222 4.531671634124774E-2
1223 1223 6.526596064760615E-2
1224 1224 6.526596064760615E-2
1225 1225 5.4396487605201375E-2
1226 1226 4.642982514626462E-2
1227 1227 6.526596064760615E-2
1228 1228 6.526596064760615E-2
1229 1229 5.4396487605201375E-2
1230 1230 4.642982514626462E-2
1231 1231 5.397669698275833E-2
1232 1232 4.621176182328468E-2
1233 1233 6.526596064760615E-2
1234 1234 6.526596064760615E-2
1235 1235 5.4396487605201375E-2
1236 1236 4.642982514626462E-2
1237 1237 6.526596064760615E-2
1238 1238 6.526596064760615E-2
1239 1239 5.4396487605201375E-2
1240 1240 4.642982514626462E-2
1241 1241 5.2750567132574665E-2
1242 1242 3.5034698807351404E-2
1243 1243 3.0836646529764235E-2
1244 1244 3.823469111134745E-2
1245 1245 6.526596064760615E-2
1246 1246 6.526596064760615E-2
1247 1247 5.4396487605201375E-2
1248 1248 4.642982514626462E-2
1249 1249 6.526596064760615E-2
1250 1250 6.526596064760615E-2
1251 1251 5.4396487605201375E-2
1252 1252 5.301489180771616E-2
1253 1253 3.7834341095549506E-2
1254 1254 3.0922160382677342E-2
1255 1255 4.0045850760762974E-2
1256 1256 3.744333298720525E-2
1257 1257 3.356859028375976E-2
1258 1258 5.09634082704483E-2
1259 1259 2.0587374129790934E-2
1260 1260 2.5687442712597524E-2
1261 1261 4.042042392634631E-2
1262 1262 3.317039320285146E-2
1263 1263 2.905331890919556E-2
1264 1264 2.4373203471096054E-2
1265 1265 2.6979311640159067E-2
1266 1266 2.256063087432946E-2
1267 1267 3.583013824073677E-2
1268 1268 2.2945336461225565E-2
1269 1269 3.7517486282198115E-2
1270 1270 3.8862595400825525E-2
1271 1271 2.513595255159598E-2
1272 1272 3.409485524003697E-2
1273 1273 2.425183422602154E-2
1274 1274 4.24206369389994E-2
1275 1275 3.600312749402123E-2
1276 1276 1.627672349380708E-2
1277 1277 1.414442493563221E-2
1278 1278 2.3498641235141005E-2
1279 1279 6.526596064760615E-2
1280 1280 6.526596064760615E-2
1281 1281 5.4396487605201375E-2
1282 1282 4.642982514626462E-2
1283 1283 6.526596064760615E-2
1284 1284 6.526596064760615E-2
1285 1285 5.4396487605201375E-2
1286 1286 4.642982514626462E-2
1287 1287 5.2750567132574665E-2
1288 1288 3.5034698807351404E-2
1289 1289 3.0836646529764235E-2
1290 1290 3.823469111134745E-2
1291 1291 6.526596064760615E-2
1292 1292 6.526596064760615E-2
1293 1293 5.4396487605201375E-2
1294 1294 4.642982514626462E-2
1295 1295 6.526596064760615E-2
1296 1296 6.526596064760615E-2
1297 1297 5.4396487605201375E-2
1298 1298 4.642982514626462E-2
1299 1299 5.2750567132574665E-2
1300 1300 3.5034698807351404E-2
1301 1301 3.0836646529764235E-2
1302 1302 3.823469111134745E-2
1303 1303 5.2340321038262666E-2
1304 1304 3.408526792132561E-2
1305 1305 2.9851702963910546E-2
1306 1306 3.765620988643198E-2
1307 1307 6.526596064760615E-2
1308 1308 6.526596064760615E-2
1309 1309 5.4396487605201375E-2
1310 1310 4.642982514626462E-2
1311 1311 6.526596064760615E-2
1312 1312 6.526596064760615E-2
1313 1313 5.4396487605201375E-2
1314 1314 4.642982514626462E-2
1315 1315 5.2750567132574665E-2
1316 1316 3.5034698807351404E-2
1317 1317 3.0836646529764235E-2
1318 1318 3.823469111134745E-2
1319 1319 6.526596064760615E-2
1320 1320 6.526596064760615E-2
1321 1321 5.4396487605201375E-2
1322 1322 4.642982514626462E-2
1323 1323 6.526596064760615E-2
1324 1324 6.526596064760615E-2
1325 1325 5.4396487605201375E-2
1326 1326 4.642982514626462E-2
1327 1327 5.2750567132574665E-2
1328 1328 3.5034698807351404E-2
1329 1329 3.0836646529764217E-2
1330 1330 3.823469111134745E-2
1331 1331 3.9628760855514755E-2
1332 1332 3.570666043527748E-2
1333 1333 2.3610580556659287E-2
1334 1334 5.088440987561618E-2
1335 1335 1.8641598072192688E-2
1336 1336 3.531761157527371E-2
1337 1337 6.526596064760615E-2
1338 1338 6.526596064760615E-2
1339 1339 5.4396487605201375E-2
1340 1340 4.642982514626462E-2
1341 1341 6.526596064760615E-2
1342 1342 6.526596064760615E-2
1343 1343 5.4396487605201375E-2
1344 1344 4.642982514626462E-2
1345 1345 5.2750567132574665E-2
1346 1346 3.5034698807351404E-2
1347 1347 3.0836646529764235E-2
1348 1348 3.823469111134745E-2
1349 1349 6.526596064760615E-2
1350 1350 6.526596064760615E-2
1351 1351 5.4396487605201375E-2
1352 1352 4.642982514626462E-2
1353 1353 6.526596064760615E-2
1354 1354 6.526596064760615E-2
1355 1355 5.4396487605201375E-2
1356 1356 4.642982514626462E-2
1357 1357 5.2750567132574665E-2
1358 1358 3.5034698807351404E-2
1359 1359 3.0836646529764235E-2
1360 1360 3.823469111134745E-2
1361 1361 3.9628760855514755E-2
1362 1362 3.5706660435277496E-2
1363 1363 2.3610580556659298E-2
1364 1364 5.088440987561617E-2
1365 1365 1.8641598072192688E-2
1366 1366 3.531761157527372E-2
1367 1367 5.2252254397256476E-2
1368 1368 3.356849989377791E-2
1369 1369 2.7311203650513635E-2
1370 1370 2.4302124728152883E-2
1371 1371 2.2633720328893787E-2
1372 1372 2.1668114722793064E-2
1373 1373 2.1181829212949248E-2
1374 1374 2.1288790426885595E-2
1375 1375 2.314641372881994E-2
1376 1376 3.3792492182705636E-2
1377 1377 3.8834424368010365E-2
1378 1378 3.4553107031903924E-2
1379 1379 2.3193444656054423E-2
1380 1380 3.4009194835175144E-2
1381 1381 1.5597410453459255E-2
1382 1382 3.401077963954165E-2
1383 1383 1.349274544826446E-2
1384 1384 3.439613312651671E-2
1385 1385 1.2820936227389041E-2
1386 1386 3.583060088258098E-2
1387 1387 1.4087434296965245E-2
1388 1388 2.072732174006437E-2
1389 1389 6.526596064760615E-2
1390 1390 5.501746174018367E-2
1391 1391 6.2082861785768245E-2
1392 1392 6.46131480630834E-2
1393 1393 6.2082861785768245E-2
1394 1394 6.46131480630834E-2
1395 1395 6.45381807608503E-2
1396 1396 4.280595282202674E-2
1397 1397 4.0127045667857734E-2
1398 1398 4.0692781641744454E-2
1399 1399 2.806099400055646E-2
1400 1400 5.250384471002132E-2
1401 1401 4.590825801539792E-2
1402 1402 6.526596064760615E-2
1403 1403 5.501746174018367E-2
1404 1404 6.526596064760615E-2
1405 1405 6.526596064760615E-2
1406 1406 5.4396487605201375E-2
1407 1407 5.380239779715558E-2
1408 1408 4.6236555698632206E-2
1409 1409 2.8706415172079433E-2
1410 1410 3.986367377603102E-2
1411 1411 4.0116587229843806E-2
1412 1412 3.1947638505220734E-2
1413 1413 3.4777253776224606E-2
1414 1414 2.4579754320629223E-2
1415 1415 2.0050141314321736E-2
1416 1416 3.660954340985362E-2
1417 1417 6.2082861785768245E-2
1418 1418 6.46131480630834E-2
1419 1419 6.2082861785768245E-2
1420 1420 6.46131480630834E-2
1421 1421 6.45381807608503E-2
1422 1422 4.280595282202674E-2
1423 1423 4.0127045667857734E-2
1424 1424 4.069278164174445E-2
1425 1425 2.806099400055646E-2
1426 1426 6.2082861785768245E-2
1427 1427 6.46131480630834E-2
1428 1428 6.526596064760615E-2
1429 1429 5.501746174018367E-2
1430 1430 5.4015727694064763E-2
1431 1431 4.621050464922425E-2
1432 1432 3.6533179487465074E-2
1433 1433 5.146833054425557E-2
1434 1434 2.8713610446069734E-2
1435 1435 3.9136820061269145E-2
1436 1436 2.2189885812061383E-2
1437 1437 2.1853670022596926E-2
1438 1438 6.526596064760615E-2
1439 1439 6.526596064760615E-2
1440 1440 5.4396487605201375E-2
1441 1441 6.526596064760615E-2
1442 1442 6.526596064760615E-2
1443 1443 5.4396487605201375E-2
1444 1444 4.642982514626462E-2
1445 1445 5.301489180771617E-2
1446 1446 3.78343410955495E-2
1447 1447 3.0922160382677342E-2
1448 1448 4.0045850760762974E-2
1449 1449 3.694226002298698E-2
1450 1450 5.0786680114154166E-2
1451 1451 2.5425778346775868E-2
1452 1452 4.295226709369944E-2
1453 1453 3.872660796589162E-2
1454 1454 2.059274511379705E-2
1455 1455 3.2961781423021995E-2
1456 1456 3.4820931149508266E-2
1457 1457 3.2356539454999965E-2
1458 1458 2.7203449919388317E-2
1459 1459 2.4128347592445604E-2
1460 1460 3.424918766677609E-2
1461 1461 1.400542797460191E-2
1462 1462 3.390915902241326E-2
1463 1463 1.3714100680566802E-2
1464 1464 3.5133930645237545E-2
1465 1465 1.447753650629149E-2
1466 1466 1.4952492214127014E-2
1467 1467 6.526596064760615E-2
1468 1468 6.526596064760615E-2
1469 1469 5.4396487605201375E-2
1470 1470 4.642982514626462E-2
1471 1471 6.526596064760615E-2
1472 1472 6.526596064760615E-2
1473 1473 5.4396487605201375E-2
1474 1474 4.642982514626462E-2
1475 1475 5.2750567132574665E-2
1476 1476 3.5034698807351404E-2
1477 1477 3.0836646529764235E-2
1478 1478 3.823469111134745E-2
1479 1479 6.526596064760615E-2
1480 1480 6.2082861785768245E-2
1481 1481 6.46131480630834E-2
1482 1482 4.55332024194794E-2
1483 1483 4.564112687069479E-2
1484 1484 6.526596064760615E-2
1485 1485 6.526596064760615E-2
1486 1486 5.4396487605201375E-2
1487 1487 4.642982514626462E-2
1488 1488 5.267396286346279E-2
1489 1489 3.503075018874455E-2
1490 1490 3.071152700157106E-2
1491 1491 3.822877876161582E-2
1492 1492 6.526596064760615E-2
1493 1493 6.464498651262385E-2
1494 1494 6.526596064760615E-2
1495 1495 6.526596064760615E-2
1496 1496 5.4396487605201375E-2
1497 1497 4.5761204001931434E-2
1498 1498 3.7540283691096306E-2
1499 1499 4.14495309382644E-2
1500 1500 6.2082861785768245E-2
1501 1501 6.46131480630834E-2
1502 1502 6.2082861785768245E-2
1503 1503 6.46131480630834E-2
1504 1504 6.45381807608503E-2
1505 1505 4.280595282202674E-2
1506 1506 4.0127045667857734E-2
1507 1507 4.0692781641744454E-2
1508 1508 2.806099400055646E-2
1509 1509 6.526596064760615E-2
1510 1510 5.501746174018367E-2
1511 1511 6.526596064760615E-2
1512 1512 6.2082861785768245E-2
1513 1513 5.130890409198482E-2
1514 1514 5.4113348443501234E-2
1515 1515 6.2082861785768245E-2
1516 1516 5.889976292393033E-2
1517 1517 5.0726650942394674E-2
1518 1518 5.023578015806016E-2
1519 1519 5.009133776408816E-2
1520 1520 4.068113878586047E-2
1521 1521 5.34267116253221E-2
1522 1522 3.954891979935412E-2
1523 1523 5.337753273988709E-2
1524 1524 4.044043090587883E-2
1525 1525 4.9829989056009195E-2
1526 1526 2.732545053302043E-2
1527 1527 3.800645279185828E-2
1528 1528 3.60359009145575E-2
1529 1529 3.888156656655279E-2
1530 1530 3.904230268041416E-2
1531 1531 5.245438507110503E-2
1532 1532 2.8622812782673247E-2
1533 1533 3.326067877555035E-2
1534 1534 5.284571457372525E-2
1535 1535 3.194936924428641E-2
1536 1536 3.8630896292369744E-2
1537 1537 1.5522452140176415E-2
1538 1538 2.4946317166373244E-2
1539 1539 3.625618758048647E-2
1540 1540 3.649141069969118E-2
1541 1541 3.8712882805463075E-2
1542 1542 3.6786447312719975E-2
1543 1543 1.650116981253092E-2
1544 1544 3.809345632570873E-2
1545 1545 1.551704491323164E-2
1546 1546 6.526596064760615E-2
1547 1547 6.526596064760615E-2
1548 1548 6.402401237764158E-2
1549 1549 6.526596064760615E-2
1550 1550 6.526596064760615E-2
1551 1551 5.4396487605201375E-2
1552 1552 4.642982514626462E-2
1553 1553 4.5502891887142176E-2
1554 1554 3.451973557697841E-2
1555 1555 3.474421540400984E-2
1556 1556 3.865551129682356E-2
1557 1557 3.585980264029576E-2
1558 1558 3.857683279360714E-2
1559 1559 3.1099710678392598E-2
1560 1560 2.8515849975178455E-2
1561 1561 3.661121748010121E-2
1562 1562 2.1369240066668474E-2
1563 1563 3.670464198461901E-2
1564 1564 3.912146798720511E-2
1565 1565 3.350841450482228E-2
1566 1566 2.474530414622723E-2
1567 1567 3.5730115580224105E-2
1568 1568 1.3107871559134012E-2
1569 1569 3.688042469406351E-2
1570 1570 2.137325415467749E-2
1571 1571 3.753496661782166E-2
1572 1572 1.3956697941259236E-2
1573 1573 3.4275624006687606E-2
1574 1574 2.0726948912393874E-2
1575 1575 2.147409528265513E-2
1576 1576 3.366818807659518E-2
1577 1577 2.93270727919393E-2
1578 1578 3.409953497895301E-2
1579 1579 3.3232908484973116E-2
1580 1580 1.76306154202944E-2
1581 1581 2.3934229403295548E-2
1582 1582 3.519543760238791E-2
1583 1583 3.707516390593967E-2
1584 1584 1.3917552578602409E-2
1585 1585 3.418531098445915E-2
1586 1586 1.5376654784961708E-2
1587 1587 6.526596064760615E-2
1588 1588 6.526596064760615E-2
1589 1589 5.4396487605201375E-2
1590 1590 4.642982514626462E-2
1591 1591 6.526596064760615E-2
1592 1592 6.526596064760615E-2
1593 1593 5.4396487605201375E-2
1594 1594 4.642982514626462E-2
1595 1595 5.2750567132574665E-2
1596 1596 3.5034698807351404E-2
1597 1597 3.0836646529764235E-2
1598 1598 3.823469111134745E-2
1599 1599 6.526596064760615E-2
1600 1600 6.526596064760615E-2
1601 1601 5.4396487605201375E-2
1602 1602 4.642982514626462E-2
1603 1603 6.526596064760615E-2
1604 1604 6.526596064760615E-2
1605 1605 5.4396487605201375E-2
1606 1606 4.642982514626462E-2
1607 1607 5.2750567132574665E-2
1608 1608 3.5034698807351404E-2
1609 1609 3.0836646529764217E-2
1610 1610 3.823469111134745E-2
1611 1611 3.9628760855514755E-2
1612 1612 3.570666043527748E-2
1613 1613 2.3610580556659287E-2
1614 1614 5.088440987561618E-2
1615 1615 1.8641598072192688E-2
1616 1616 3.531761157527371E-2
1617 1617 5.2242924620914406E-2
1618 1618 3.35428301949193E-2
1619 1619 2.727099887440381E-2
1620 1620 2.4089994954298834E-2
1621 1621 2.2588372985688703E-2
1622 1622 2.1099968433731537E-2
1623 1623 3.2210211808914424E-2
1624 1624 3.296659013531082E-2
1625 1625 2.4001308052947642E-2
1626 1626 7.335244854247364E-3
1627 1627 3.464293190427299E-2
1628 1628 2.0382805048948904E-2
1629 1629 3.341719076606103E-2
1630 1630 2.937207256998158E-2
1631 1631 2.4747809623204328E-2
1632 1632 1.9971668888887146E-2
1633 1633 3.4014670633064806E-2
1634 1634 1.4435472594915266E-2
1635 1635 2.305551626740337E-2
1636 1636 5.0705128033385706E-2
1637 1637 1.5767295788259354E-2
1638 1638 2.2436273966844764E-2
1639 1639 3.3312597412204145E-2
1640 1640 3.870288108416612E-2
1641 1641 3.72698750133874E-2
1642 1642 2.5804453584580268E-2
1643 1643 2.0134524416727455E-2
1644 1644 3.381356567630499E-2
1645 1645 2.850953265717411E-2
1646 1646 3.176611778828621E-2
1647 1647 1.689058341838516E-2
1648 1648 3.161663576560864E-2
1649 1649 1.3562536402638705E-2
1650 1650 3.221367874904452E-2
1651 1651 1.2316565651755047E-2
1652 1652 3.459207697681761E-2
1653 1653 1.324771238614794E-2
1654 1654 4.439973613277552E-3
1655 1655 6.526596064760615E-2
1656 1656 6.526596064760615E-2
1657 1657 5.4396487605201375E-2
1658 1658 4.642982514626462E-2
1659 1659 6.526596064760615E-2
1660 1660 6.526596064760615E-2
1661 1661 5.4396487605201375E-2
1662 1662 4.642982514626462E-2
1663 1663 5.2750567132574665E-2
1664 1664 3.5034698807351404E-2
1665 1665 3.0836646529764235E-2
1666 1666 3.823469111134745E-2
1667 1667 6.526596064760615E-2
1668 1668 6.526596064760615E-2
1669 1669 5.4396487605201375E-2
1670 1670 4.642982514626462E-2
1671 1671 6.526596064760615E-2
1672 1672 6.526596064760615E-2
1673 1673 5.4396487605201375E-2
1674 1674 4.642982514626462E-2
1675 1675 5.2750567132574665E-2
1676 1676 3.5034698807351404E-2
1677 1677 3.0836646529764224E-2
1678 1678 3.823469111134745E-2
1679 1679 3.7324373064566985E-2
1680 1680 3.356840529097647E-2
1681 1681 5.060518244466748E-2
1682 1682 1.9491481249436372E-2
1683 1683 2.5639491222465772E-2
1684 1684 6.526596064760615E-2
1685 1685 6.526596064760615E-2
1686 1686 5.4396487605201375E-2
1687 1687 6.526596064760615E-2
1688 1688 6.526596064760615E-2
1689 1689 5.4396487605201375E-2
1690 1690 4.642982514626462E-2
1691 1691 5.362449799284376E-2
1692 1692 3.5074709505677495E-2
1693 1693 3.421829846579119E-2
1694 1694 3.859185681690385E-2
1695 1695 6.526596064760615E-2
1696 1696 6.2082861785768245E-2
1697 1697 6.46131480630834E-2
1698 1698 6.2082861785768245E-2
1699 1699 6.46131480630834E-2
1700 1700 4.280622563956281E-2
1701 1701 4.014294407058267E-2
1702 1702 4.570008018642512E-2
1703 1703 3.027863794283338E-2
1704 1704 5.224457974816924E-2
1705 1705 3.357004238541664E-2
1706 1706 3.838525603595001E-2
1707 1707 6.526596064760615E-2
1708 1708 6.526596064760615E-2
1709 1709 5.4396487605201375E-2
1710 1710 4.02298940568539E-2
1711 1711 3.712517237964512E-2
1712 1712 2.8327920471766733E-2
1713 1713 3.966990243647499E-2
1714 1714 3.981334488496928E-2
1715 1715 6.526596064760615E-2
1716 1716 6.526596064760615E-2
1717 1717 5.4396487605201375E-2
1718 1718 4.642982514626462E-2
1719 1719 6.2082861785768245E-2
1720 1720 6.46131480630834E-2
1721 1721 6.2082861785768245E-2
1722 1722 6.46131480630834E-2
1723 1723 6.463871256154528E-2
1724 1724 4.272531614363301E-2
1725 1725 4.5616448041285756E-2
1726 1726 3.0117472541862263E-2
1727 1727 3.315355310785055E-2
1728 1728 6.526596064760615E-2
1729 1729 6.526596064760615E-2
1730 1730 5.4396487605201375E-2
1731 1731 5.3344397737671745E-2
1732 1732 3.326526690605622E-2
1733 1733 3.5537562743038216E-2
1734 1734 2.9163937299969484E-2
1735 1735 5.2454423295571845E-2
1736 1736 3.4976434199213875E-2
1737 1737 2.9886287698598798E-2
1738 1738 3.816676273302834E-2
1739 1739 3.382704525306993E-2
1740 1740 3.751165095263557E-2
1741 1741 3.5203167702485806E-2
1742 1742 2.6361919010563225E-2
1743 1743 3.5426214575038285E-2
1744 1744 2.999757632618755E-2
1745 1745 1.2180266712833366E-2
1746 1746 2.1364772619669778E-2
1747 1747 3.5386922409528204E-2
1748 1748 1.4537879208008407E-2
1749 1749 5.262710172454764E-2
1750 1750 4.5456050315712405E-2
1751 1751 2.7560512160937613E-2
1752 1752 2.9602838675149658E-2
1753 1753 2.697465765743337E-2
1754 1754 3.643811731025616E-2
1755 1755 4.283229678110316E-2
1756 1756 2.5967910395827236E-2
1757 1757 2.647340806006379E-2
1758 1758 3.542347811834488E-2
1759 1759 2.1596425607335122E-2
1760 1760 3.357824595370382E-2
1761 1761 1.3132509907535284E-2
1762 1762 3.3539466645762225E-2
1763 1763 1.3068853421651205E-2
1764 1764 3.669445763529548E-2
1765 1765 1.3438749799095462E-2
1766 1766 2.236530791554041E-2
1767 1767 3.1806173145966274E-2
1768 1768 3.347313259205774E-2
1769 1769 2.5757161489875797E-2
1770 1770 3.271015875897791E-2
1771 1771 1.6083717027184363E-2
1772 1772 3.4596949779750724E-2
1773 1773 3.1388136373977304E-2
1774 1774 1.3241311613698735E-2
1775 1775 3.271242735175527E-2
1776 1776 2.830906737258274E-2
1777 1777 7.870663577058274E-3
1778 1778 5.114754551583516E-2
1779 1779 3.1869526227858616E-2
1780 1780 3.226025927040402E-2
1781 1781 1.13420487291564E-2
1782 1782 2.7601640629031542E-2
1783 1783 4.7935351322971234E-2
1784 1784 1.2454310302296195E-2
1785 1785 2.938700567340048E-2
1786 1786 1.1342986278614013E-2
1787 1787 6.072992855178493E-3
1788 1788 5.173843781978917E-2
1789 1789 2.369175400362636E-2
1790 1790 4.214947311608153E-2
1791 1791 2.347343863641561E-2
1792 1792 2.6442022871065864E-2
1793 1793 5.093659632550279E-2
1794 1794 2.3011321114816196E-2
1795 1795 3.00733465288623E-2
1796 1796 2.910244962397656E-2
1797 1797 2.543869778983501E-2
1798 1798 2.0728634246279947E-2
1799 1799 2.1403936829175626E-2
1800 1800 1.966223083399974E-2
1801 1801 1.9912633105399345E-2
1802 1802 1.9048944250833522E-2
1803 1803 1.955479664536318E-2
1804 1804 1.8774406913107184E-2
1805 1805 2.1958316059541513E-2
1806 1806 1.8753909951127676E-2
1807 1807 3.1116938090285637E-2
1808 1808 1.0746520361569116E-2
1809 1809 3.128243476816769E-2
1810 1810 1.0764314024510934E-2
1811 1811 3.179141769940459E-2
1812 1812 1.0896915299998635E-2
1813 1813 3.304042984733958E-2
1814 1814 1.2364113619608588E-2
1815 1815 4.8129652936682865E-3
1816 1816 3.4415025135070616E-2
1817 1817 1.9957863502079624E-2
1818 1818 3.313211667938248E-2
1819 1819 2.9267890704944823E-2
1820 1820 2.465389561111529E-2
1821 1821 1.905761862552852E-2
1822 1822 3.339319280356731E-2
1823 1823 1.428167083899639E-2
1824 1824 2.0785532976724294E-2
1825 1825 1.8926644977474937E-2
1826 1826 4.907583632059017E-2
1827 1827 1.364881345753724E-2
1828 1828 3.179993891321345E-2
1829 1829 1.8594611214586717E-2
1830 1830 3.853507596506354E-2
1831 1831 1.4290026685834659E-2
1832 1832 1.9146959591645068E-2
1833 1833 1.8383954888045673E-2
1834 1834 1.9144867445866385E-2
1835 1835 1.8668681118909687E-2
1836 1836 3.1828395898331883E-2
1837 1837 1.9031654489956865E-2
1838 1838 3.168580262435947E-2
1839 1839 1.925753603306014E-2
1840 1840 1.9380274769554808E-2
1841 1841 1.8973117851383104E-2
1842 1842 2.0090177364964757E-2
1843 1843 2.2115521231978425E-2
1844 1844 3.3234118796565335E-2
1845 1845 2.001675825416337E-2
1846 1846 3.59077896491223E-2
1847 1847 3.87016672240496E-2
1848 1848 3.697847640249078E-2
1849 1849 1.6960813344862553E-2
1850 1850 3.503439324639284E-2
1851 1851 1.5962644508030317E-2
1852 1852 1.971782562026771E-2
1853 1853 2.0595896133229392E-2
1854 1854 2.0090237654212126E-2
1855 1855 3.2468077098723507E-2
1856 1856 3.4008224304746246E-2
1857 1857 2.0669618440877398E-2
1858 1858 2.0206100781949267E-2
1859 1859 1.9844994537677147E-2
1860 1860 1.9853068802116878E-2
1861 1861 1.9183358684087222E-2
1862 1862 2.2212182600831454E-2
1863 1863 1.9087174934206575E-2
1864 1864 3.1125614097197028E-2
1865 1865 1.08634672059585E-2
1866 1866 3.137611770008576E-2
1867 1867 3.2693768813897225E-2
1868 1868 2.254930001881591E-2
1869 1869 4.895253854498266E-2
1870 1870 1.6374926108721384E-2
1871 1871 3.9376497950626855E-3
1872 1872 3.442127303511041E-2
1873 1873 2.0109547256278917E-2
1874 1874 3.303248378046281E-2
1875 1875 2.9262084391419488E-2
1876 1876 2.466898571846275E-2
1877 1877 1.932791401205108E-2
1878 1878 3.251961332774273E-2
1879 1879 1.4191401530331039E-2
1880 1880 2.2875005483658055E-2
1881 1881 3.6545671319481214E-2
1882 1882 3.2929599521102054E-2
1883 1883 1.2855624289344383E-2
1884 1884 4.778536820426696E-2
1885 1885 1.6902934104361677E-2
1886 1886 5.135662958031461E-2
1887 1887 3.562054721180214E-2
1888 1888 1.3084573753620633E-2
1889 1889 3.352862065173223E-2
1890 1890 1.7430928685940723E-2
1891 1891 3.623962751636442E-2
1892 1892 1.0287503789943846E-2
1893 1893 3.317057580822839E-2
1894 1894 1.582497766725602E-2
1895 1895 1.9599945720706752E-2
1896 1896 2.0150228450972335E-2
1897 1897 1.9273442777608615E-2
1898 1898 1.9980492614902323E-2
1899 1899 1.9450553644578233E-2
1900 1900 3.2220839980605334E-2
1901 1901 3.369952373883152E-2
1902 1902 2.0091177748650484E-2
1903 1903 1.8514484331389577E-2
1904 1904 1.8420749583604786E-2
1905 1905 1.8834382672699643E-2
1906 1906 1.871629253749285E-2
1907 1907 1.8835423555865944E-2
1908 1908 1.8525917295366366E-2
1909 1909 1.957060527962868E-2
1910 1910 1.868710253011418E-2
1911 1911 3.20306847842919E-2
1912 1912 1.8267483534946245E-2
1913 1913 3.2325098747993185E-2
1914 1914 1.1167371647658401E-2
1915 1915 3.181937078962963E-2
1916 1916 1.8665706037639146E-2
1917 1917 2.222607423832174E-2
1918 1918 1.88998719263909E-2
1919 1919 2.6143546492569947E-3
1920 1920 6.526596064760615E-2
1921 1921 6.526596064760615E-2
1922 1922 5.4396487605201375E-2
1923 1923 4.642982514626462E-2
1924 1924 6.526596064760615E-2
1925 1925 6.526596064760615E-2
1926 1926 5.4396487605201375E-2
1927 1927 4.642982514626462E-2
1928 1928 5.2750567132574665E-2
1929 1929 3.5034698807351404E-2
1930 1930 3.0836646529764235E-2
1931 1931 3.823469111134745E-2
1932 1932 6.526596064760615E-2
1933 1933 6.526596064760615E-2
1934 1934 5.4396487605201375E-2
1935 1935 4.642982514626462E-2
1936 1936 6.526596064760615E-2
1937 1937 6.526596064760615E-2
1938 1938 5.4396487605201375E-2
1939 1939 4.642982514626462E-2
1940 1940 5.2750567132574665E-2
1941 1941 3.50346988073514E-2
1942 1942 3.0836646529764235E-2
1943 1943 3.823469111134745E-2
1944 1944 3.7324373064566985E-2
1945 1945 3.356840529097647E-2
1946 1946 5.0605182444667475E-2
1947 1947 1.949148124943636E-2
1948 1948 2.5639491222465782E-2
1949 1949 3.669529372262722E-2
1950 1950 6.526596064760615E-2
1951 1951 6.526596064760615E-2
1952 1952 5.4396487605201375E-2
1953 1953 4.642982514626462E-2
1954 1954 6.526596064760615E-2
1955 1955 6.526596064760615E-2
1956 1956 5.4396487605201375E-2
1957 1957 4.642982514626462E-2
1958 1958 5.2750567132574665E-2
1959 1959 3.5034698807351404E-2
1960 1960 3.0836646529764235E-2
1961 1961 3.823469111134745E-2
1962 1962 6.526596064760615E-2
1963 1963 6.526596064760615E-2
1964 1964 5.4396487605201375E-2
1965 1965 4.642982514626462E-2
1966 1966 6.526596064760615E-2
1967 1967 6.526596064760615E-2
1968 1968 5.4396487605201375E-2
1969 1969 4.642982514626462E-2
1970 1970 5.2750567132574665E-2
1971 1971 3.5034698807351404E-2
1972 1972 3.0836646529764224E-2
1973 1973 3.823469111134745E-2
1974 1974 3.7324373064566985E-2
1975 1975 3.356840529097647E-2
1976 1976 5.060518244466748E-2
1977 1977 1.9491481249436372E-2
1978 1978 2.5639491222465772E-2
1979 1979 6.526596064760615E-2
1980 1980 6.526596064760615E-2
1981 1981 5.4396487605201375E-2
1982 1982 4.642982514626462E-2
1983 1983 6.526596064760615E-2
1984 1984 6.526596064760615E-2
1985 1985 5.4396487605201375E-2
1986 1986 4.642982514626462E-2
1987 1987 5.2750567132574665E-2
1988 1988 3.5034698807351404E-2
1989 1989 3.0836646529764235E-2
1990 1990 3.823469111134745E-2
1991 1991 6.526596064760615E-2
1992 1992 6.526596064760615E-2
1993 1993 5.4396487605201375E-2
1994 1994 4.642982514626462E-2
1995 1995 6.526596064760615E-2
1996 1996 6.526596064760615E-2
1997 1997 5.4396487605201375E-2
1998 1998 4.642982514626462E-2
1999 1999 5.2750567132574665E-2
2000 2000 3.5034698807351404E-2
2001 2001 3.0836646529764235E-2
2002 2002 3.823469111134745E-2
2003 2003 3.732437306456698E-2
2004 2004 3.3568405290976454E-2
2005 2005 5.0605182444667475E-2
2006 2006 1.949148124943636E-2
2007 2007 2.5639491222465765E-2
2008 2008 5.225505382705799E-2
2009 2009 3.359725108448748E-2
2010 2010 2.7422801344757865E-2
2011 2011 2.4754706084717176E-2
2012 2012 3.507394851111921E-2
2013 2013 2.2223201209520177E-2
2014 2014 2.1991185202557807E-2
2015 2015 2.114264979941757E-2
2016 2016 2.1564695792487164E-2
2017 2017 2.3169218239158993E-2
2018 2018 3.389277071171721E-2
2019 2019 5.22511311513076E-2
2020 2020 3.3576927354063806E-2
2021 2021 2.736674317670482E-2
2022 2022 2.468486628086429E-2
2023 2023 3.506470111438659E-2
2024 2024 2.2000941190856882E-2
2025 2025 2.132047193800657E-2
2026 2026 2.1036239926896485E-2
2027 2027 2.0956640534952154E-2
2028 2028 2.3031668089991655E-2
2029 2029 3.366520358699805E-2
2030 2030 6.526596064760615E-2
2031 2031 6.526596064760615E-2
2032 2032 5.4396487605201375E-2
2033 2033 6.526596064760615E-2
2034 2034 6.526596064760615E-2
2035 2035 5.4396487605201375E-2
2036 2036 4.642982514626462E-2
2037 2037 5.397925241170746E-2
2038 2038 4.571203038317983E-2
2039 2039 6.526596064760615E-2
2040 2040 6.526596064760615E-2
2041 2041 5.4396487605201375E-2
2042 2042 6.526596064760615E-2
2043 2043 6.526596064760615E-2
2044 2044 5.4396487605201375E-2
2045 2045 4.642982514626462E-2
2046 2046 5.301489180771616E-2
2047 2047 3.7834341095549506E-2
2048 2048 3.0922160382677335E-2
2049 2049 4.0045850760762974E-2
2050 2050 6.526596064760615E-2
2051 2051 6.526596064760615E-2
2052 2052 5.4396487605201375E-2
2053 2053 4.642982514626462E-2
2054 2054 6.526596064760615E-2
2055 2055 6.526596064760615E-2
2056 2056 5.4396487605201375E-2
2057 2057 4.642982514626462E-2
2058 2058 5.2750567132574665E-2
2059 2059 3.5034698807351404E-2
2060 2060 3.0836646529764235E-2
2061 2061 3.823469111134745E-2
2062 2062 3.9988203436128814E-2
2063 2063 3.612077617252122E-2
2064 2064 2.3667657772956655E-2
2065 2065 5.091228451161539E-2
2066 2066 1.869696368907149E-2
2067 2067 3.537781481884918E-2
2068 2068 5.3062181791956584E-2
2069 2069 3.1393859539163724E-2
2070 2070 3.252137412429468E-2
2071 2071 2.6620167802660032E-2
2072 2072 2.7454966758085057E-2
2073 2073 2.2739229121741495E-2
2074 2074 2.7157145048558016E-2
2075 2075 2.197628359892481E-2
2076 2076 4.514260052955207E-2
2077 2077 6.526596064760615E-2
2078 2078 6.526596064760615E-2
2079 2079 5.4396487605201375E-2
2080 2080 4.642982514626462E-2
2081 2081 6.526596064760615E-2
2082 2082 6.526596064760615E-2
2083 2083 5.4396487605201375E-2
2084 2084 4.642982514626462E-2
2085 2085 5.2750567132574665E-2
2086 2086 3.5034698807351404E-2
2087 2087 3.0836646529764235E-2
2088 2088 3.823469111134745E-2
2089 2089 6.526596064760615E-2
2090 2090 6.526596064760615E-2
2091 2091 5.4396487605201375E-2
2092 2092 4.642982514626462E-2
2093 2093 6.526596064760615E-2
2094 2094 6.526596064760615E-2
2095 2095 5.4396487605201375E-2
2096 2096 4.642982514626462E-2
2097 2097 5.2750567132574665E-2
2098 2098 3.5034698807351404E-2
2099 2099 3.0836646529764217E-2
2100 2100 3.823469111134745E-2
2101 2101 3.9628760855514755E-2
2102 2102 3.570666043527748E-2
2103 2103 2.3610580556659287E-2
2104 2104 5.088440987561618E-2
2105 2105 1.8641598072192688E-2
2106 2106 3.531761157527371E-2
2107 2107 6.526596064760615E-2
2108 2108 6.526596064760615E-2
2109 2109 5.4396487605201375E-2
2110 2110 4.642982514626462E-2
2111 2111 6.526596064760615E-2
2112 2112 6.526596064760615E-2
2113 2113 5.4396487605201375E-2
2114 2114 4.642982514626462E-2
2115 2115 5.2750567132574665E-2
2116 2116 3.5034698807351404E-2
2117 2117 3.0836646529764235E-2
2118 2118 3.823469111134745E-2
2119 2119 6.526596064760615E-2
2120 2120 6.526596064760615E-2
2121 2121 5.4396487605201375E-2
2122 2122 4.642982514626462E-2
2123 2123 6.526596064760615E-2
2124 2124 6.526596064760615E-2
2125 2125 5.4396487605201375E-2
2126 2126 4.642982514626462E-2
2127 2127 5.2750567132574665E-2
2128 2128 3.5034698807351404E-2
2129 2129 3.0836646529764235E-2
2130 2130 3.823469111134745E-2
2131 2131 3.9628760855514755E-2
2132 2132 3.5706660435277496E-2
2133 2133 2.3610580556659298E-2
2134 2134 5.088440987561617E-2
2135 2135 1.8641598072192688E-2
2136 2136 3.531761157527372E-2
2137 2137 5.2252254397256476E-2
2138 2138 3.356849989377791E-2
2139 2139 2.7311203650513635E-2
2140 2140 2.4302124728152883E-2
2141 2141 2.2633720328893787E-2
2142 2142 2.1668114722793064E-2
2143 2143 2.1181829212949248E-2
2144 2144 2.1288790426885595E-2
2145 2145 2.314641372881994E-2
2146 2146 3.3792492182705636E-2
2147 2147 5.224392282820837E-2
2148 2148 3.353108390576592E-2
2149 2149 2.721712218118699E-2
2150 2150 2.4145509998430254E-2
2151 2151 2.236144925375987E-2
2152 2152 2.1404893625444822E-2
2153 2153 2.0804448264489142E-2
2154 2154 2.1043816776570242E-2
2155 2155 2.2905014104405357E-2
2156 2156 3.3668672613894356E-2
2157 2157 3.926324698384388E-2
2158 2158 3.3517351799734765E-2
2159 2159 2.3390418595248857E-2
2160 2160 3.2120415311024636E-2
2161 2161 1.5500932718303882E-2
2162 2162 3.168985900963023E-2
2163 2163 1.3085131149594175E-2
2164 2164 3.1552257899557436E-2
2165 2165 1.2043008814712661E-2
2166 2166 3.151084542768151E-2
2167 2167 1.1543934930694819E-2
2168 2168 3.150727917551683E-2
2169 2169 1.1300182431216263E-2
2170 2170 3.156103203433398E-2
2171 2171 1.1183962850863387E-2
2172 2172 3.1865550099648844E-2
2173 2173 1.1146075981456269E-2
2174 2174 3.346646787194032E-2
2175 2175 1.1319477063744244E-2
2176 2176 5.056627386330306E-2
2177 2177 1.4507503670891509E-2
2178 2178 3.31136314803962E-2
2179 2179 6.526596064760615E-2
2180 2180 6.526596064760615E-2
2181 2181 5.4396487605201375E-2
2182 2182 4.642982514626462E-2
2183 2183 6.526596064760615E-2
2184 2184 6.526596064760615E-2
2185 2185 5.4396487605201375E-2
2186 2186 4.642982514626462E-2
2187 2187 5.2750567132574665E-2
2188 2188 3.5034698807351404E-2
2189 2189 3.0836646529764235E-2
2190 2190 3.823469111134745E-2
2191 2191 6.526596064760615E-2
2192 2192 6.526596064760615E-2
2193 2193 5.4396487605201375E-2
2194 2194 4.642982514626462E-2
2195 2195 6.526596064760615E-2
2196 2196 6.526596064760615E-2
2197 2197 5.4396487605201375E-2
2198 2198 4.642982514626462E-2
2199 2199 5.2750567132574665E-2
2200 2200 3.5034698807351404E-2
2201 2201 3.0836646529764235E-2
2202 2202 3.823469111134745E-2
2203 2203 3.927403383362989E-2
2204 2204 3.6395044862990895E-2
2205 2205 2.456944063987148E-2
2206 2206 2.529247750562757E-2
2207 2207 6.526596064760615E-2
2208 2208 6.526596064760615E-2
2209 2209 5.4396487605201375E-2
2210 2210 4.642982514626462E-2
2211 2211 6.526596064760615E-2
2212 2212 6.526596064760615E-2
2213 2213 5.4396487605201375E-2
2214 2214 4.642982514626462E-2
2215 2215 5.2750567132574665E-2
2216 2216 3.5034698807351404E-2
2217 2217 3.0836646529764235E-2
2218 2218 3.823469111134745E-2
2219 2219 6.526596064760615E-2
2220 2220 6.526596064760615E-2
2221 2221 5.4396487605201375E-2
2222 2222 4.642982514626462E-2
2223 2223 6.526596064760615E-2
2224 2224 6.526596064760615E-2
2225 2225 5.4396487605201375E-2
2226 2226 4.642982514626462E-2
2227 2227 5.2750567132574665E-2
2228 2228 3.5034698807351404E-2
2229 2229 3.0836646529764235E-2
2230 2230 3.823469111134745E-2
2231 2231 3.927403383362989E-2
2232 2232 3.6395044862990895E-2
2233 2233 2.4569440639871473E-2
2234 2234 2.529247750562757E-2
2235 2235 5.227444759901887E-2
2236 2236 3.367583601167852E-2
2237 2237 2.7817592877741836E-2
2238 2238 3.700699513665531E-2
2239 2239 3.605724267291332E-2
2240 2240 2.32401495499977E-2
2241 2241 2.2798680132092228E-2
2242 2242 2.1535025629993872E-2
2243 2243 2.1172794360500166E-2
2244 2244 2.192475908286983E-2
2245 2245 2.3243140543232437E-2
2246 2246 3.402483830066073E-2
2247 2247 6.526596064760615E-2
2248 2248 6.526596064760615E-2
2249 2249 5.4396487605201375E-2
2250 2250 4.642982514626462E-2
2251 2251 6.526596064760615E-2
2252 2252 6.526596064760615E-2
2253 2253 5.4396487605201375E-2
2254 2254 4.642982514626462E-2
2255 2255 5.2750567132574665E-2
2256 2256 3.5034698807351404E-2
2257 2257 3.0836646529764235E-2
2258 2258 3.823469111134745E-2
2259 2259 6.526596064760615E-2
2260 2260 6.526596064760615E-2
2261 2261 5.4396487605201375E-2
2262 2262 4.642982514626462E-2
2263 2263 6.526596064760615E-2
2264 2264 6.526596064760615E-2
2265 2265 5.4396487605201375E-2
2266 2266 4.642982514626462E-2
2267 2267 5.2750567132574665E-2
2268 2268 3.5034698807351404E-2
2269 2269 3.0836646529764217E-2
2270 2270 3.823469111134745E-2
2271 2271 3.9628760855514755E-2
2272 2272 3.570666043527748E-2
2273 2273 2.3610580556659287E-2
2274 2274 5.088440987561618E-2
2275 2275 1.8641598072192688E-2
2276 2276 3.531761157527371E-2
2277 2277 6.526596064760615E-2
2278 2278 6.526596064760615E-2
2279 2279 5.4396487605201375E-2
2280 2280 4.642982514626462E-2
2281 2281 6.526596064760615E-2
2282 2282 6.526596064760615E-2
2283 2283 5.4396487605201375E-2
2284 2284 4.642982514626462E-2
2285 2285 5.2750567132574665E-2
2286 2286 3.5034698807351404E-2
2287 2287 3.0836646529764235E-2
2288 2288 3.823469111134745E-2
2289 2289 6.526596064760615E-2
2290 2290 6.526596064760615E-2
2291 2291 5.4396487605201375E-2
2292 2292 4.642982514626462E-2
2293 2293 6.526596064760615E-2
2294 2294 6.526596064760615E-2
2295 2295 5.4396487605201375E-2
2296 2296 4.642982514626462E-2
2297 2297 5.2750567132574665E-2
2298 2298 3.5034698807351404E-2
2299 2299 3.0836646529764235E-2
2300 2300 3.823469111134745E-2
2301 2301 3.9628760855514755E-2
2302 2302 3.5706660435277496E-2
2303 2303 2.3610580556659298E-2
2304 2304 5.088440987561617E-2
2305 2305 1.8641598072192688E-2
2306 2306 3.531761157527372E-2
2307 2307 5.2252254397256476E-2
2308 2308 3.356849989377791E-2
2309 2309 2.7311203650513635E-2
2310 2310 2.4302124728152883E-2
2311 2311 2.2633720328893787E-2
2312 2312 2.1668114722793064E-2
2313 2313 2.1181829212949248E-2
2314 2314 2.1288790426885595E-2
2315 2315 2.314641372881994E-2
2316 2316 3.3792492182705636E-2
2317 2317 6.526596064760615E-2
2318 2318 6.526596064760615E-2
2319 2319 5.4396487605201375E-2
2320 2320 4.642982514626462E-2
2321 2321 6.526596064760615E-2
2322 2322 6.526596064760615E-2
2323 2323 5.4396487605201375E-2
2324 2324 4.642982514626462E-2
2325 2325 5.2750567132574665E-2
2326 2326 3.5034698807351404E-2
2327 2327 3.0836646529764235E-2
2328 2328 3.823469111134745E-2
2329 2329 6.526596064760615E-2
2330 2330 6.526596064760615E-2
2331 2331 5.4396487605201375E-2
2332 2332 4.642982514626462E-2
2333 2333 6.526596064760615E-2
2334 2334 6.526596064760615E-2
2335 2335 5.4396487605201375E-2
2336 2336 4.642982514626462E-2
2337 2337 5.2750567132574665E-2
2338 2338 3.5034698807351404E-2
2339 2339 3.0836646529764224E-2
2340 2340 3.823469111134745E-2
2341 2341 3.7324373064566985E-2
2342 2342 3.356840529097647E-2
2343 2343 5.060518244466748E-2
2344 2344 1.9491481249436372E-2
2345 2345 2.5639491222465772E-2
2346 2346 6.526596064760615E-2
2347 2347 6.526596064760615E-2
2348 2348 5.4396487605201375E-2
2349 2349 4.642982514626462E-2
2350 2350 6.526596064760615E-2
2351 2351 6.526596064760615E-2
2352 2352 5.4396487605201375E-2
2353 2353 4.642982514626462E-2
2354 2354 5.2750567132574665E-2
2355 2355 3.5034698807351404E-2
2356 2356 3.0836646529764235E-2
2357 2357 3.823469111134745E-2
2358 2358 6.526596064760615E-2
2359 2359 6.526596064760615E-2
2360 2360 5.4396487605201375E-2
2361 2361 4.642982514626462E-2
2362 2362 6.526596064760615E-2
2363 2363 6.526596064760615E-2
2364 2364 5.4396487605201375E-2
2365 2365 4.642982514626462E-2
2366 2366 5.2750567132574665E-2
2367 2367 3.5034698807351404E-2
2368 2368 3.0836646529764235E-2
2369 2369 3.823469111134745E-2
2370 2370 3.732437306456698E-2
2371 2371 3.3568405290976454E-2
2372 2372 5.0605182444667475E-2
2373 2373 1.949148124943636E-2
2374 2374 2.5639491222465765E-2
2375 2375 5.225505382705799E-2
2376 2376 3.359725108448748E-2
2377 2377 2.7422801344757865E-2
2378 2378 2.4754706084717176E-2
2379 2379 3.507394851111921E-2
2380 2380 2.2223201209520177E-2
2381 2381 2.1991185202557807E-2
2382 2382 2.114264979941757E-2
2383 2383 2.1564695792487164E-2
2384 2384 2.3169218239158993E-2
2385 2385 3.389277071171721E-2
2386 2386 3.934189012036574E-2
2387 2387 3.3801873723471945E-2
2388 2388 2.3406282503811195E-2
2389 2389 3.230138511671723E-2
2390 2390 1.5549592081227635E-2
2391 2391 3.182800671124993E-2
2392 2392 1.3136979551241249E-2
2393 2393 3.194590525631394E-2
2394 2394 1.2096662088144378E-2
2395 2395 3.348540399634923E-2
2396 2396 1.1775576680276909E-2
2397 2397 5.056993235365502E-2
2398 2398 1.4705349492095628E-2
2399 2399 3.3290137614989786E-2
2400 2400 6.526596064760615E-2
2401 2401 6.526596064760615E-2
2402 2402 6.402401237764158E-2
2403 2403 6.526596064760615E-2
2404 2404 6.526596064760615E-2
2405 2405 5.4396487605201375E-2
2406 2406 4.642982514626462E-2
2407 2407 4.5502891887142176E-2
2408 2408 3.451973557697841E-2
2409 2409 3.474421540400984E-2
2410 2410 3.865551129682356E-2
2411 2411 3.876530770659743E-2
2412 2412 6.526596064760615E-2
2413 2413 6.526596064760615E-2
2414 2414 5.4396487605201375E-2
2415 2415 4.642982514626462E-2
2416 2416 6.526596064760615E-2
2417 2417 6.526596064760615E-2
2418 2418 5.4396487605201375E-2
2419 2419 4.642982514626462E-2
2420 2420 5.2750567132574665E-2
2421 2421 3.5034698807351404E-2
2422 2422 3.0836646529764235E-2
2423 2423 3.823469111134745E-2
2424 2424 5.2312605838517275E-2
2425 2425 3.382926860730449E-2
2426 2426 2.9614561749427438E-2
2427 2427 2.7051047161721426E-2
2428 2428 6.526596064760615E-2
2429 2429 6.526596064760615E-2
2430 2430 6.402401237764158E-2
2431 2431 6.526596064760615E-2
2432 2432 6.526596064760615E-2
2433 2433 5.4396487605201375E-2
2434 2434 4.642982514626462E-2
2435 2435 4.5502891887142176E-2
2436 2436 3.451973557697841E-2
2437 2437 3.474421540400984E-2
2438 2438 3.865551129682356E-2
2439 2439 3.876530770659743E-2
2440 2440 6.526596064760615E-2
2441 2441 6.526596064760615E-2
2442 2442 6.402401237764158E-2
2443 2443 6.526596064760615E-2
2444 2444 6.2082861785768245E-2
2445 2445 6.46131480630834E-2
2446 2446 6.2082861785768245E-2
2447 2447 6.46131480630834E-2
2448 2448 4.280622563956282E-2
2449 2449 4.014294407058267E-2
2450 2450 4.131992010804852E-2
2451 2451 5.3284568226734E-2
2452 2452 2.769193632545822E-2
2453 2453 3.981333053932705E-2
2454 2454 4.067956363330805E-2
2455 2455 4.5358241536193805E-2
2456 2456 4.4455513774032285E-2
2457 2457 2.586737661985336E-2
2458 2458 2.5479551072256773E-2
2459 2459 3.817407320912602E-2
2460 2460 6.526596064760615E-2
2461 2461 6.526596064760615E-2
2462 2462 6.402401237764158E-2
2463 2463 6.526596064760615E-2
2464 2464 6.2082861785768245E-2
2465 2465 6.46131480630834E-2
2466 2466 6.2082861785768245E-2
2467 2467 6.46131480630834E-2
2468 2468 4.280622563956282E-2
2469 2469 4.014294407058267E-2
2470 2470 4.131992010804852E-2
2471 2471 5.328456822673399E-2
2472 2472 2.769193632545822E-2
2473 2473 3.981333053932704E-2
2474 2474 4.0679563633308026E-2
2475 2475 4.535824153619382E-2
2476 2476 4.445551377403227E-2
2477 2477 2.5867376619853354E-2
2478 2478 2.5479551072256766E-2
2479 2479 3.817407320912602E-2
2480 2480 5.2104527801817804E-2
2481 2481 3.2347566954549004E-2
2482 2482 3.9258589868994775E-2
2483 2483 1.7586949972781155E-2
2484 2484 3.233186947064374E-2
2485 2485 1.896039389997074E-2
2486 2486 3.4591737747901655E-2
2487 2487 5.225656423864576E-2
2488 2488 3.9845445700424434E-2
2489 2489 3.369159206640495E-2
2490 2490 2.9227295919712827E-2
2491 2491 3.510354985704928E-2
2492 2492 2.4506124213729642E-2
2493 2493 2.446361789155108E-2
2494 2494 3.195962415666476E-2
2495 2495 1.3236221338200255E-2
2496 2496 7.62951846821143E-3
2497 2497 3.791121352457377E-2
2498 2498 3.564070747684577E-2
2499 2499 2.435328453234815E-2
2500 2500 3.5519650314048384E-2
2501 2501 2.3903096830058236E-2
2502 2502 3.328278698093126E-2
2503 2503 3.327730858294595E-2
2504 2504 2.2761384358513825E-2
2505 2505 3.646388582154961E-2
2506 2506 1.5507909816343582E-2
2507 2507 2.3805757373920117E-2
2508 2508 6.41011776439343E-3
2509 2509 6.526596064760615E-2
2510 2510 6.526596064760615E-2
2511 2511 5.4396487605201375E-2
2512 2512 4.642982514626462E-2
2513 2513 6.526596064760615E-2
2514 2514 6.526596064760615E-2
2515 2515 5.4396487605201375E-2
2516 2516 4.642982514626462E-2
2517 2517 5.2750567132574665E-2
2518 2518 3.5034698807351404E-2
2519 2519 3.0836646529764235E-2
2520 2520 3.823469111134745E-2
2521 2521 6.526596064760615E-2
2522 2522 6.526596064760615E-2
2523 2523 6.402401237764158E-2
2524 2524 6.526596064760615E-2
2525 2525 6.526596064760615E-2
2526 2526 5.4396487605201375E-2
2527 2527 4.576721656228367E-2
2528 2528 3.7233303636924744E-2
2529 2529 3.4857275167495476E-2
2530 2530 4.047493052436207E-2
2531 2531 4.0741012566208136E-2
2532 2532 6.526596064760615E-2
2533 2533 6.2082861785768245E-2
2534 2534 6.46131480630834E-2
2535 2535 6.2082861785768245E-2
2536 2536 6.46131480630834E-2
2537 2537 4.280622563956281E-2
2538 2538 4.014294407058267E-2
2539 2539 4.131992010804852E-2
2540 2540 5.3284568226734E-2
2541 2541 2.769193632545822E-2
2542 2542 3.981333053932705E-2
2543 2543 4.067956363330805E-2
2544 2544 6.526596064760615E-2
2545 2545 6.526596064760615E-2
2546 2546 6.402401237764158E-2
2547 2547 6.526596064760615E-2
2548 2548 6.2082861785768245E-2
2549 2549 6.46131480630834E-2
2550 2550 6.2082861785768245E-2
2551 2551 6.46131480630834E-2
2552 2552 4.280622563956281E-2
2553 2553 4.014294407058267E-2
2554 2554 4.131992010804852E-2
2555 2555 5.3284568226734E-2
2556 2556 2.769193632545822E-2
2557 2557 3.981333053932705E-2
2558 2558 4.067956363330805E-2
2559 2559 4.535824153619382E-2
2560 2560 4.4455513774032285E-2
2561 2561 2.5867376619853354E-2
2562 2562 2.5479551072256773E-2
2563 2563 3.8174073209126004E-2
2564 2564 5.214136799625361E-2
2565 2565 3.234832969528271E-2
2566 2566 2.4503568428160594E-2
2567 2567 3.3509475664386536E-2
2568 2568 3.788190401490988E-2
2569 2569 1.3884034616767772E-2
2570 2570 3.910010163876168E-2
2571 2571 4.014689997172038E-2
2572 2572 3.810464983171673E-2
2573 2573 2.4763754048860914E-2
2574 2574 4.945781226455314E-2
2575 2575 1.722619617237698E-2
2576 2576 1.3639642432744757E-2
2577 2577 3.383043913107436E-2
2578 2578 5.215051728568179E-2
2579 2579 4.480691327144263E-2
2580 2580 3.747636836786267E-2
2581 2581 2.950449774800621E-2
2582 2582 3.483111225135792E-2
2583 2583 1.7219460590237722E-2
2584 2584 3.6662029322034856E-2
2585 2585 1.4264567631865942E-2
2586 2586 2.1088696695825575E-2
2587 2587 1.0355827423002274E-2
2588 2588 6.526596064760615E-2
2589 2589 6.526596064760615E-2
2590 2590 5.4396487605201375E-2
2591 2591 4.642982514626462E-2
2592 2592 6.526596064760615E-2
2593 2593 6.526596064760615E-2
2594 2594 5.4396487605201375E-2
2595 2595 5.362449799284376E-2
2596 2596 3.507470950567748E-2
2597 2597 3.4218298465791185E-2
2598 2598 3.859185681690385E-2
2599 2599 6.526596064760615E-2
2600 2600 6.526596064760615E-2
2601 2601 5.4396487605201375E-2
2602 2602 4.642982514626462E-2
2603 2603 6.526596064760615E-2
2604 2604 6.526596064760615E-2
2605 2605 5.4396487605201375E-2
2606 2606 4.642982514626462E-2
2607 2607 5.2750567132574665E-2
2608 2608 3.5034698807351404E-2
2609 2609 3.0836646529764235E-2
2610 2610 3.823469111134745E-2
2611 2611 6.526596064760615E-2
2612 2612 6.526596064760615E-2
2613 2613 5.4396487605201375E-2
2614 2614 4.642982514626462E-2
2615 2615 6.526596064760615E-2
2616 2616 6.526596064760615E-2
2617 2617 5.4396487605201375E-2
2618 2618 4.642982514626462E-2
2619 2619 5.2750567132574665E-2
2620 2620 3.5034698807351404E-2
2621 2621 3.0836646529764224E-2
2622 2622 3.823469111134745E-2
2623 2623 3.9628760855514755E-2
2624 2624 3.5706660435277496E-2
2625 2625 2.3610580556659287E-2
2626 2626 5.088440987561618E-2
2627 2627 1.8641598072192688E-2
2628 2628 3.531761157527372E-2
2629 2629 3.950466776848091E-2
2630 2630 3.538812315840299E-2
2631 2631 2.3680728950042515E-2
2632 2632 5.089134529329279E-2
2633 2633 1.8909926549161245E-2
2634 2634 3.539319706772892E-2
2635 2635 6.526596064760615E-2
2636 2636 6.526596064760615E-2
2637 2637 5.4396487605201375E-2
2638 2638 4.642982514626462E-2
2639 2639 6.526596064760615E-2
2640 2640 6.526596064760615E-2
2641 2641 5.4396487605201375E-2
2642 2642 4.642982514626462E-2
2643 2643 5.2750567132574665E-2
2644 2644 3.5034698807351404E-2
2645 2645 3.0836646529764235E-2
2646 2646 3.823469111134745E-2
2647 2647 6.526596064760615E-2
2648 2648 6.526596064760615E-2
2649 2649 5.4396487605201375E-2
2650 2650 4.642982514626462E-2
2651 2651 6.526596064760615E-2
2652 2652 6.2082861785768245E-2
2653 2653 6.46131480630834E-2
2654 2654 6.2082861785768245E-2
2655 2655 6.46131480630834E-2
2656 2656 4.280622563956281E-2
2657 2657 4.014294407058267E-2
2658 2658 4.131992010804852E-2
2659 2659 3.350481244474854E-2
2660 2660 4.404002776907131E-2
2661 2661 3.981333053932705E-2
2662 2662 4.067956363330804E-2
2663 2663 3.7714644211491274E-2
2664 2664 3.436851489915901E-2
2665 2665 2.7994661325988206E-2
2666 2666 3.78025420204248E-2
2667 2667 6.526596064760615E-2
2668 2668 6.526596064760615E-2
2669 2669 5.4396487605201375E-2
2670 2670 4.642982514626462E-2
2671 2671 6.526596064760615E-2
2672 2672 6.2082861785768245E-2
2673 2673 6.46131480630834E-2
2674 2674 6.2082861785768245E-2
2675 2675 6.46131480630834E-2
2676 2676 4.280622563956282E-2
2677 2677 4.014294407058267E-2
2678 2678 4.131992010804852E-2
2679 2679 3.3504812444748525E-2
2680 2680 4.404002776907131E-2
2681 2681 3.981333053932705E-2
2682 2682 4.067956363330804E-2
2683 2683 3.771464421149129E-2
2684 2684 3.436851489915899E-2
2685 2685 2.7994661325988195E-2
2686 2686 3.780254202042479E-2
2687 2687 3.374182213141769E-2
2688 2688 3.87199308944778E-2
2689 2689 5.1492351063404114E-2
2690 2690 4.480288154676172E-2
2691 2691 3.572507597100539E-2
2692 2692 1.7289473154574984E-2
2693 2693 1.227481246107114E-2
2694 2694 3.923704402499989E-2
2695 2695 3.219048547585043E-2
2696 2696 3.550399262261708E-2
2697 2697 1.9274724747094844E-2
2698 2698 2.1245871042293897E-2
2699 2699 2.20867897562484E-2
2700 2700 2.0458599652900453E-2
2701 2701 2.173262156528751E-2
2702 2702 2.2900154188295146E-2
2703 2703 3.3904446192165795E-2
2704 2704 6.526596064760615E-2
2705 2705 6.526596064760615E-2
2706 2706 5.4396487605201375E-2
2707 2707 4.642982514626462E-2
2708 2708 6.526596064760615E-2
2709 2709 6.2082861785768245E-2
2710 2710 5.130890409198482E-2
2711 2711 5.4113348443501234E-2
2712 2712 6.526596064760615E-2
2713 2713 6.2082861785768245E-2
2714 2714 5.889976292393033E-2
2715 2715 5.0726650942394674E-2
2716 2716 5.023578015806016E-2
2717 2717 5.009133776408816E-2
2718 2718 4.068113878586047E-2
2719 2719 5.3426711625322115E-2
2720 2720 3.9548919799354106E-2
2721 2721 3.6406306702753466E-2
2722 2722 3.9827970535440294E-2
2723 2723 3.93114785857199E-2
2724 2724 3.7275172056777474E-2
2725 2725 5.162822994925158E-2
2726 2726 4.4788067507985925E-2
2727 2727 3.5471623142400606E-2
2728 2728 2.851517514138596E-2
2729 2729 2.8845547343273752E-2
2730 2730 3.98491118556503E-2
2731 2731 3.753964117999444E-2
2732 2732 4.3661258213856226E-2
2733 2733 1.6121399645825315E-2
2734 2734 3.564565362015555E-2
2735 2735 3.903057839882647E-2
2736 2736 6.526596064760615E-2
2737 2737 5.501746174018367E-2
2738 2738 6.2082861785768245E-2
2739 2739 6.46131480630834E-2
2740 2740 6.2082861785768245E-2
2741 2741 6.46131480630834E-2
2742 2742 4.280622563956281E-2
2743 2743 4.014294407058267E-2
2744 2744 4.131992010804852E-2
2745 2745 3.3475894113446925E-2
2746 2746 4.329423253022608E-2
2747 2747 3.9806095343364954E-2
2748 2748 3.62270908934359E-2
2749 2749 5.375218769052701E-2
2750 2750 3.870828851664115E-2
2751 2751 3.720234256652434E-2
2752 2752 4.311691172721331E-2
2753 2753 1.3047078880699016E-2
2754 2754 1.7846036901068514E-2
2755 2755 4.0472449864201204E-2
2756 2756 4.5334519430243664E-2
2757 2757 2.1987882443680648E-2
2758 2758 2.6599902958062523E-2
2759 2759 2.0861872210604024E-2
2760 2760 2.6303548149710115E-2
2761 2761 2.087530523047906E-2
2762 2762 3.555768349460681E-2
2763 2763 6.526596064760615E-2
2764 2764 5.501746174018367E-2
2765 2765 6.526596064760615E-2
2766 2766 6.526596064760615E-2
2767 2767 5.4396487605201375E-2
2768 2768 4.642982514626462E-2
2769 2769 5.398057290400803E-2
2770 2770 3.744785051701431E-2
2771 2771 4.458225159269422E-2
2772 2772 3.4088959800746034E-2
2773 2773 4.205878478957558E-2
2774 2774 3.0725929762084783E-2
2775 2775 2.599997816046263E-2
2776 2776 2.7986137163064157E-2
2777 2777 2.2561781272379722E-2
2778 2778 9.482207983606213E-3
2779 2779 6.526596064760615E-2
2780 2780 6.2082861785768245E-2
2781 2781 6.46131480630834E-2
2782 2782 4.55332024194794E-2
2783 2783 4.564112687069479E-2
2784 2784 6.526596064760615E-2
2785 2785 6.2082861785768245E-2
2786 2786 6.46131480630834E-2
2787 2787 5.429294290478374E-2
2788 2788 4.622697819484959E-2
2789 2789 5.269202274433859E-2
2790 2790 4.4869971646504296E-2
2791 2791 2.567771552917203E-2
2792 2792 3.859665858227765E-2
2793 2793 2.4725351994371134E-2
2794 2794 6.526596064760615E-2
2795 2795 6.526596064760615E-2
2796 2796 5.4396487605201375E-2
2797 2797 4.642982514626462E-2
2798 2798 6.526596064760615E-2
2799 2799 6.526596064760615E-2
2800 2800 5.4396487605201375E-2
2801 2801 4.642982514626462E-2
2802 2802 5.2750567132574665E-2
2803 2803 3.5034698807351404E-2
2804 2804 3.0836646529764235E-2
2805 2805 3.823469111134745E-2
2806 2806 3.9903143231659874E-2
2807 2807 5.040158271141643E-2
2808 2808 2.5423930900414754E-2
2809 2809 1.742020451496537E-2
2810 2810 3.5931248596866625E-2
2811 2811 5.197872597648346E-2
2812 2812 3.5293386658910166E-2
2813 2813 3.3299338426090105E-2
2814 2814 2.327516982462022E-2
2815 2815 2.5865646964066912E-2
2816 2816 3.3995409411053765E-2
2817 2817 1.6664135532610116E-2
2818 2818 3.35444376191279E-2
2819 2819 1.9759028772465735E-2
2820 2820 2.8956327459466445E-2
2821 2821 3.358325121382844E-2
2822 2822 2.757427561485591E-2
2823 2823 3.0299171344940205E-2
2824 2824 1.841019524476884E-2
2825 2825 5.574419635342381E-3
2826 2826 6.526596064760615E-2
2827 2827 6.526596064760615E-2
2828 2828 5.4396487605201375E-2
2829 2829 4.642982514626462E-2
2830 2830 6.526596064760615E-2
2831 2831 6.526596064760615E-2
2832 2832 5.4396487605201375E-2
2833 2833 5.362449799284376E-2
2834 2834 3.507470950567748E-2
2835 2835 3.4218298465791185E-2
2836 2836 3.859185681690385E-2
2837 2837 6.526596064760615E-2
2838 2838 6.526596064760615E-2
2839 2839 5.4396487605201375E-2
2840 2840 6.526596064760615E-2
2841 2841 6.526596064760615E-2
2842 2842 6.402401237764158E-2
2843 2843 4.627307589278204E-2
2844 2844 5.404795522166003E-2
2845 2845 3.9942710664198564E-2
2846 2846 3.855476144775435E-2
2847 2847 2.4838871528358758E-2
2848 2848 3.781919917312853E-2
2849 2849 3.7090548254475275E-2
2850 2850 5.266256311063902E-2
2851 2851 3.753234390078978E-2
2852 2852 3.401698071381601E-2
2853 2853 3.085417884977039E-2
2854 2854 2.5132546149903744E-2
2855 2855 3.389719708920322E-2
2856 2856 2.3041737929736662E-2
2857 2857 2.4378706725886486E-2
2858 2858 3.556333982625057E-2
2859 2859 3.1191734212441157E-2
2860 2860 3.319547840528611E-2
2861 2861 2.0643549942294923E-2
2862 2862 3.06398412008948E-2
2863 2863 1.8036828975836198E-2
2864 2864 2.4353914079323698E-2
2865 2865 3.295388616305766E-2
2866 2866 5.551552060315704E-3
2867 2867 3.6073127353894736E-2
2868 2868 1.4883933920669187E-2
2869 2869 3.595116702095089E-2
2870 2870 4.41522071583861E-2
2871 2871 3.2674350014821454E-2
2872 2872 1.9107685169005253E-2
2873 2873 3.197050255573797E-2
2874 2874 1.4403901469670908E-2
2875 2875 3.322088380576893E-2
2876 2876 3.20401501548032E-2
2877 2877 1.2631888129339356E-2
2878 2878 3.868874648115862E-2
2879 2879 4.79710860179861E-2
2880 2880 1.3088330547737377E-2
2881 2881 3.330042541539403E-2
2882 2882 1.1192510249268449E-2
2883 2883 6.283287844280783E-3
2884 2884 3.903350471280455E-2
2885 2885 3.495193960356228E-2
2886 2886 2.4438096609277097E-2
2887 2887 1.929493973248396E-2
2888 2888 2.2492717549037304E-2
2889 2889 1.8994640619226438E-2
2890 2890 2.2280176412138735E-2
2891 2891 1.897569837445396E-2
2892 2892 2.126912503709372E-2
2893 2893 1.8895802152857195E-2
2894 2894 2.0472472020629583E-2
2895 2895 1.874090771575222E-2
2896 2896 2.010786699473994E-2
2897 2897 1.8703036913669188E-2
2898 2898 1.9983537825092833E-2
2899 2899 1.9075769721332497E-2
2900 2900 2.0123520004974697E-2
2901 2901 2.2223144339128198E-2
2902 2902 3.2952639842764614E-2
2903 2903 2.0125405913993453E-2
2904 2904 3.976538464718145E-2
2905 2905 3.732436099340323E-2
2906 2906 2.467818730069582E-2
2907 2907 3.597985418631032E-2
2908 2908 4.2671347908377295E-2
2909 2909 4.089085386419375E-2
2910 2910 1.7034769707772623E-2
2911 2911 3.2938690583777075E-2
2912 2912 1.9751196425305397E-2
2913 2913 9.036071696985705E-3
2914 2914 3.2399814161470857E-2
2915 2915 1.3940673777231074E-2
2916 2916 3.1386002109365395E-2
2917 2917 2.0059640465561794E-2
2918 2918 1.8493330895070284E-2
2919 2919 1.91035701011601E-2
2920 2920 1.937987718277332E-2
2921 2921 1.9349120864281567E-2
2922 2922 3.207113131516528E-2
2923 2923 1.905450509517867E-2
2924 2924 3.2906880834782486E-2
2925 2925 1.2109737675538232E-2
2926 2926 2.8947973360869714E-2
2927 2927 1.3089498145911014E-2
2928 2928 4.428407147153225E-3
2929 2929 5.214747133575425E-2
2930 2930 3.395802065669876E-2
2931 2931 3.296448252983857E-2
2932 2932 2.411005966737454E-2
2933 2933 2.4242063536228445E-2
2934 2934 3.433942754284274E-2
2935 2935 2.097717333698055E-2
2936 2936 3.278918969507027E-2
2937 2937 4.3620772610292693E-2
2938 2938 2.2323888550923914E-2
2939 2939 3.780749412961451E-2
2940 2940 1.3913374264225913E-2
2941 2941 3.143030728234362E-2
2942 2942 1.7565091295868675E-2
2943 2943 4.703863431164456E-3
2944 2944 5.2185161767684965E-2
2945 2945 3.3397921344421294E-2
2946 2946 2.659283751699214E-2
2947 2947 2.40550481614147E-2
2948 2948 2.1789567732563E-2
2949 2949 2.108408377091792E-2
2950 2950 1.998413031172433E-2
2951 2951 1.9749733632459687E-2
2952 2952 1.9132910091050503E-2
2953 2953 1.907090715760394E-2
2954 2954 1.8691068275989757E-2
2955 2955 1.8714468791575782E-2
2956 2956 3.733922103528634E-2
2957 2957 1.8467728373010864E-2
2958 2958 1.8556650055456012E-2
2959 2959 3.3522363564675486E-2
2960 2960 2.4215205601008885E-2
2961 2961 1.854929713122872E-2
2962 2962 1.8794788138636935E-2
2963 2963 3.2209009414405215E-2
2964 2964 3.147051798371941E-2
2965 2965 1.9312275606784318E-2
2966 2966 3.168358956919458E-2
2967 2967 2.275027595653829E-2
2968 2968 1.824402643195406E-2
2969 2969 1.8759333890621312E-2
2970 2970 3.1595586502612176E-2
2971 2971 1.5148339363126158E-2
2972 2972 1.8311998512170503E-2
2973 2973 2.1331104365105713E-2
2974 2974 3.139324657759399E-2
2975 2975 1.2822506464630602E-2
2976 2976 1.81995931702357E-2
2977 2977 2.648738819321196E-2
2978 2978 1.1353515547979677E-2
2979 2979 2.871934571217416E-3
2980 2980 5.9207489867142095E-3
2981 2981 3.8667987839929904E-2
2982 2982 3.365225595394503E-2
2983 2983 2.3147414198082333E-2
2984 2984 3.2291372237376006E-2
2985 2985 1.53930248420123E-2
2986 2986 5.22640879246805E-2
2987 2987 3.3609865982851456E-2
2988 2988 3.172853869908761E-2
2989 2989 1.3026402659153698E-2
2990 2990 2.7576216932740545E-2
2991 2991 3.6837469097975514E-2
2992 2992 3.5755096347124544E-2
2993 2993 2.1794322424322922E-2
2994 2994 3.1583603617863866E-2
2995 2995 1.1977768657613953E-2
2996 2996 2.130376518236306E-2
2997 2997 2.0346317015644683E-2
2998 2998 2.0352807106787798E-2
2999 2999 2.0690028461837137E-2
3000 3000 3.1655365797060214E-2
3001 3001 1.1443372969081387E-2
3002 3002 1.9654295201512413E-2
3003 3003 3.218621428512575E-2
3004 3004 2.937379461348682E-2
3005 3005 1.0859535349600314E-2
3006 3006 1.679043610882151E-2
3007 3007 2.76083964907661E-3
3008 3008 2.0094776243688186E-2
3009 3009 6.526596064760615E-2
3010 3010 6.526596064760615E-2
3011 3011 5.4396487605201375E-2
3012 3012 6.526596064760615E-2
3013 3013 6.526596064760615E-2
3014 3014 5.4396487605201375E-2
3015 3015 5.416249997018742E-2
3016 3016 4.5742283197640975E-2
3017 3017 6.526596064760615E-2
3018 3018 6.526596064760615E-2
3019 3019 5.4396487605201375E-2
3020 3020 6.526596064760615E-2
3021 3021 6.526596064760615E-2
3022 3022 5.4396487605201375E-2
3023 3023 4.642982514626462E-2
3024 3024 5.301489180771616E-2
3025 3025 3.7834341095549506E-2
3026 3026 3.0922160382677335E-2
3027 3027 4.0045850760762974E-2
3028 3028 6.526596064760615E-2
3029 3029 6.526596064760615E-2
3030 3030 5.4396487605201375E-2
3031 3031 6.526596064760615E-2
3032 3032 6.526596064760615E-2
3033 3033 5.4396487605201375E-2
3034 3034 4.642982514626462E-2
3035 3035 5.301489180771616E-2
3036 3036 3.7834341095549506E-2
3037 3037 3.0922160382677335E-2
3038 3038 4.0045850760762974E-2
3039 3039 3.9752436336882226E-2
3040 3040 3.682248681686617E-2
3041 3041 2.4636299863979153E-2
3042 3042 2.6874291946344935E-2
3043 3043 5.308597153684638E-2
3044 3044 3.1418180761368604E-2
3045 3045 3.265446129071031E-2
3046 3046 2.7013977116638544E-2
3047 3047 3.683276589865643E-2
3048 3048 3.303033397227119E-2
3049 3049 2.2798906314121046E-2
3050 3050 2.3210785558961913E-2
3051 3051 3.854475048152695E-2
3052 3052 2.3427455093571376E-2
3053 3053 4.514801370168619E-2
3054 3054 6.526596064760615E-2
3055 3055 6.526596064760615E-2
3056 3056 5.4396487605201375E-2
3057 3057 4.642982514626462E-2
3058 3058 6.526596064760615E-2
3059 3059 6.526596064760615E-2
3060 3060 5.4396487605201375E-2
3061 3061 4.642982514626462E-2
3062 3062 5.2750567132574665E-2
3063 3063 3.5034698807351404E-2
3064 3064 3.0836646529764235E-2
3065 3065 3.823469111134745E-2
3066 3066 6.526596064760615E-2
3067 3067 6.526596064760615E-2
3068 3068 5.4396487605201375E-2
3069 3069 4.642982514626462E-2
3070 3070 6.526596064760615E-2
3071 3071 6.526596064760615E-2
3072 3072 5.4396487605201375E-2
3073 3073 4.642982514626462E-2
3074 3074 5.2750567132574665E-2
3075 3075 3.5034698807351404E-2
3076 3076 3.0836646529764235E-2
3077 3077 3.823469111134745E-2
3078 3078 3.927403383362989E-2
3079 3079 3.6395044862990895E-2
3080 3080 2.456944063987148E-2
3081 3081 2.529247750562757E-2
3082 3082 6.526596064760615E-2
3083 3083 6.526596064760615E-2
3084 3084 5.4396487605201375E-2
3085 3085 4.642982514626462E-2
3086 3086 6.526596064760615E-2
3087 3087 6.526596064760615E-2
3088 3088 5.4396487605201375E-2
3089 3089 4.642982514626462E-2
3090 3090 5.2750567132574665E-2
3091 3091 3.5034698807351404E-2
3092 3092 3.0836646529764235E-2
3093 3093 3.823469111134745E-2
3094 3094 6.526596064760615E-2
3095 3095 6.526596064760615E-2
3096 3096 5.4396487605201375E-2
3097 3097 4.642982514626462E-2
3098 3098 6.526596064760615E-2
3099 3099 6.526596064760615E-2
3100 3100 5.4396487605201375E-2
3101 3101 4.642982514626462E-2
3102 3102 5.2750567132574665E-2
3103 3103 3.5034698807351404E-2
3104 3104 3.0836646529764235E-2
3105 3105 3.823469111134745E-2
3106 3106 3.927403383362989E-2
3107 3107 3.6395044862990895E-2
3108 3108 2.4569440639871473E-2
3109 3109 2.529247750562757E-2
3110 3110 5.227444759901887E-2
3111 3111 3.367583601167852E-2
3112 3112 2.7817592877741836E-2
3113 3113 3.700699513665531E-2
3114 3114 3.605724267291332E-2
3115 3115 2.32401495499977E-2
3116 3116 2.2798680132092228E-2
3117 3117 2.1535025629993872E-2
3118 3118 2.1172794360500166E-2
3119 3119 2.192475908286983E-2
3120 3120 2.3243140543232437E-2
3121 3121 3.402483830066073E-2
3122 3122 5.226499037631511E-2
3123 3123 3.362948793987149E-2
3124 3124 2.7625423997290975E-2
3125 3125 3.6933929005134675E-2
3126 3126 3.59305136749033E-2
3127 3127 2.2041784713573386E-2
3128 3128 2.1723000332607798E-2
3129 3129 2.0845791768324053E-2
3130 3130 2.0803831329121922E-2
3131 3131 2.1056539599876252E-2
3132 3132 2.2905745567167738E-2
3133 3133 3.367232613155802E-2
3134 3134 6.526596064760615E-2
3135 3135 6.526596064760615E-2
3136 3136 5.4396487605201375E-2
3137 3137 4.642982514626462E-2
3138 3138 6.526596064760615E-2
3139 3139 6.526596064760615E-2
3140 3140 5.4396487605201375E-2
3141 3141 4.642982514626462E-2
3142 3142 5.2750567132574665E-2
3143 3143 3.5034698807351404E-2
3144 3144 3.0836646529764235E-2
3145 3145 3.823469111134745E-2
3146 3146 6.526596064760615E-2
3147 3147 6.526596064760615E-2
3148 3148 5.4396487605201375E-2
3149 3149 4.642982514626462E-2
3150 3150 6.526596064760615E-2
3151 3151 6.2082861785768245E-2
3152 3152 6.46131480630834E-2
3153 3153 6.2082861785768245E-2
3154 3154 6.46131480630834E-2
3155 3155 4.280622563956281E-2
3156 3156 4.014294407058267E-2
3157 3157 4.131992010804852E-2
3158 3158 3.350481244474854E-2
3159 3159 4.404002776907131E-2
3160 3160 3.981333053932705E-2
3161 3161 4.067956363330804E-2
3162 3162 3.7714644211491274E-2
3163 3163 3.436851489915901E-2
3164 3164 2.7994661325988206E-2
3165 3165 3.78025420204248E-2
3166 3166 6.526596064760615E-2
3167 3167 6.526596064760615E-2
3168 3168 5.4396487605201375E-2
3169 3169 4.642982514626462E-2
3170 3170 6.526596064760615E-2
3171 3171 6.2082861785768245E-2
3172 3172 6.46131480630834E-2
3173 3173 6.2082861785768245E-2
3174 3174 6.46131480630834E-2
3175 3175 4.280622563956282E-2
3176 3176 4.014294407058267E-2
3177 3177 4.131992010804852E-2
3178 3178 3.3504812444748525E-2
3179 3179 4.404002776907131E-2
3180 3180 3.981333053932705E-2
3181 3181 4.067956363330804E-2
3182 3182 3.771464421149129E-2
3183 3183 3.436851489915899E-2
3184 3184 2.7994661325988195E-2
3185 3185 3.780254202042479E-2
3186 3186 3.374182213141769E-2
3187 3187 3.87199308944778E-2
3188 3188 5.1492351063404114E-2
3189 3189 4.480288154676172E-2
3190 3190 3.572507597100539E-2
3191 3191 1.7289473154574984E-2
3192 3192 1.227481246107114E-2
3193 3193 3.923704402499989E-2
3194 3194 3.219048547585043E-2
3195 3195 3.550399262261708E-2
3196 3196 1.9274724747094844E-2
3197 3197 2.1245871042293897E-2
3198 3198 2.20867897562484E-2
3199 3199 2.0458599652900453E-2
3200 3200 2.173262156528751E-2
3201 3201 2.2900154188295146E-2
3202 3202 3.3904446192165795E-2
3203 3203 6.526596064760615E-2
3204 3204 6.526596064760615E-2
3205 3205 5.4396487605201375E-2
3206 3206 4.642982514626462E-2
3207 3207 6.526596064760615E-2
3208 3208 6.526596064760615E-2
3209 3209 5.4396487605201375E-2
3210 3210 4.642982514626462E-2
3211 3211 5.2750567132574665E-2
3212 3212 3.5034698807351404E-2
3213 3213 3.0836646529764235E-2
3214 3214 3.823469111134745E-2
3215 3215 6.526596064760615E-2
3216 3216 6.526596064760615E-2
3217 3217 5.4396487605201375E-2
3218 3218 4.642982514626462E-2
3219 3219 6.526596064760615E-2
3220 3220 6.526596064760615E-2
3221 3221 5.4396487605201375E-2
3222 3222 4.642982514626462E-2
3223 3223 5.2750567132574665E-2
3224 3224 3.5034698807351404E-2
3225 3225 3.0836646529764235E-2
3226 3226 3.823469111134745E-2
3227 3227 3.927403383362989E-2
3228 3228 3.6395044862990895E-2
3229 3229 2.456944063987148E-2
3230 3230 2.529247750562757E-2
3231 3231 6.526596064760615E-2
3232 3232 6.526596064760615E-2
3233 3233 5.4396487605201375E-2
3234 3234 4.642982514626462E-2
3235 3235 6.526596064760615E-2
3236 3236 6.526596064760615E-2
3237 3237 5.4396487605201375E-2
3238 3238 4.642982514626462E-2
3239 3239 5.2750567132574665E-2
3240 3240 3.5034698807351404E-2
3241 3241 3.0836646529764235E-2
3242 3242 3.823469111134745E-2
3243 3243 6.526596064760615E-2
3244 3244 6.526596064760615E-2
3245 3245 5.4396487605201375E-2
3246 3246 4.642982514626462E-2
3247 3247 6.526596064760615E-2
3248 3248 6.526596064760615E-2
3249 3249 5.4396487605201375E-2
3250 3250 4.642982514626462E-2
3251 3251 5.2750567132574665E-2
3252 3252 3.5034698807351404E-2
3253 3253 3.0836646529764235E-2
3254 3254 3.823469111134745E-2
3255 3255 3.927403383362989E-2
3256 3256 3.6395044862990895E-2
3257 3257 2.4569440639871473E-2
3258 3258 2.529247750562757E-2
3259 3259 5.227444759901887E-2
3260 3260 3.367583601167852E-2
3261 3261 2.7817592877741836E-2
3262 3262 3.700699513665531E-2
3263 3263 3.605724267291332E-2
3264 3264 2.32401495499977E-2
3265 3265 2.2798680132092228E-2
3266 3266 2.1535025629993872E-2
3267 3267 2.1172794360500166E-2
3268 3268 2.192475908286983E-2
3269 3269 2.3243140543232437E-2
3270 3270 3.402483830066073E-2
3271 3271 5.226415328735777E-2
3272 3272 3.361779172128466E-2
3273 3273 2.7588642271586472E-2
3274 3274 3.692716705909826E-2
3275 3275 3.591876848246775E-2
3276 3276 2.1930008618334787E-2
3277 3277 2.162597813030848E-2
3278 3278 2.0808277869691943E-2
3279 3279 2.079222195247893E-2
3280 3280 2.094945205207415E-2
3281 3281 2.2892565990271677E-2
3282 3282 3.363905295457559E-2
3283 3283 6.526596064760615E-2
3284 3284 6.526596064760615E-2
3285 3285 5.4396487605201375E-2
3286 3286 4.642982514626462E-2
3287 3287 6.526596064760615E-2
3288 3288 6.526596064760615E-2
3289 3289 5.4396487605201375E-2
3290 3290 4.642982514626462E-2
3291 3291 5.2750567132574665E-2
3292 3292 3.5034698807351404E-2
3293 3293 3.0836646529764235E-2
3294 3294 3.823469111134745E-2
3295 3295 6.526596064760615E-2
3296 3296 6.526596064760615E-2
3297 3297 5.4396487605201375E-2
3298 3298 4.642982514626462E-2
3299 3299 6.526596064760615E-2
3300 3300 6.2082861785768245E-2
3301 3301 6.46131480630834E-2
3302 3302 6.2082861785768245E-2
3303 3303 6.46131480630834E-2
3304 3304 4.280622563956281E-2
3305 3305 4.014294407058267E-2
3306 3306 4.131992010804852E-2
3307 3307 3.350481244474854E-2
3308 3308 4.404002776907131E-2
3309 3309 3.981333053932705E-2
3310 3310 4.067956363330804E-2
3311 3311 3.7714644211491274E-2
3312 3312 3.436851489915901E-2
3313 3313 2.7994661325988206E-2
3314 3314 3.78025420204248E-2
3315 3315 6.526596064760615E-2
3316 3316 6.526596064760615E-2
3317 3317 5.4396487605201375E-2
3318 3318 4.642982514626462E-2
3319 3319 6.526596064760615E-2
3320 3320 6.2082861785768245E-2
3321 3321 6.46131480630834E-2
3322 3322 6.2082861785768245E-2
3323 3323 6.46131480630834E-2
3324 3324 4.280622563956282E-2
3325 3325 4.014294407058267E-2
3326 3326 4.131992010804852E-2
3327 3327 3.3504812444748525E-2
3328 3328 4.404002776907131E-2
3329 3329 3.981333053932705E-2
3330 3330 4.067956363330804E-2
3331 3331 3.771464421149129E-2
3332 3332 3.436851489915899E-2
3333 3333 2.7994661325988195E-2
3334 3334 3.780254202042479E-2
3335 3335 3.374182213141769E-2
3336 3336 3.87199308944778E-2
3337 3337 5.1492351063404114E-2
3338 3338 4.480288154676172E-2
3339 3339 3.572507597100539E-2
3340 3340 1.7289473154574984E-2
3341 3341 1.227481246107114E-2
3342 3342 3.923704402499989E-2
3343 3343 3.219048547585043E-2
3344 3344 3.550399262261708E-2
3345 3345 1.9274724747094844E-2
3346 3346 2.1245871042293897E-2
3347 3347 2.20867897562484E-2
3348 3348 2.0458599652900453E-2
3349 3349 2.173262156528751E-2
3350 3350 2.2900154188295146E-2
3351 3351 3.3904446192165795E-2
3352 3352 6.526596064760615E-2
3353 3353 6.526596064760615E-2
3354 3354 5.4396487605201375E-2
3355 3355 6.526596064760615E-2
3356 3356 6.2082861785768245E-2
3357 3357 6.46131480630834E-2
3358 3358 6.2082861785768245E-2
3359 3359 6.46131480630834E-2
3360 3360 4.280622563956282E-2
3361 3361 4.014294407058267E-2
3362 3362 4.131992010804852E-2
3363 3363 3.3504812444748525E-2
3364 3364 4.404002776907131E-2
3365 3365 3.981333053932705E-2
3366 3366 4.067956363330804E-2
3367 3367 3.797896888663279E-2
3368 3368 3.705800446278004E-2
3369 3369 2.806321990361281E-2
3370 3370 3.961406768540344E-2
3371 3371 3.947739284246953E-2
3372 3372 6.526596064760615E-2
3373 3373 6.526596064760615E-2
3374 3374 5.4396487605201375E-2
3375 3375 4.642982514626462E-2
3376 3376 6.2082861785768245E-2
3377 3377 6.46131480630834E-2
3378 3378 6.2082861785768245E-2
3379 3379 5.130890409198482E-2
3380 3380 5.4113348443501234E-2
3381 3381 5.471490895853765E-2
3382 3382 5.471469603098852E-2
3383 3383 3.731247103451791E-2
3384 3384 3.9816555291114906E-2
3385 3385 3.8868654409485476E-2
3386 3386 4.027153348662338E-2
3387 3387 4.533906916790066E-2
3388 3388 3.2195036633655846E-2
3389 3389 2.7793562738005186E-2
3390 3390 3.601124435156864E-2
3391 3391 3.67089170026175E-2
3392 3392 2.7663447070406678E-2
3393 3393 3.862485964108247E-2
3394 3394 4.1991520800421886E-2
3395 3395 2.836072673923039E-2
3396 3396 3.704429165033694E-2
3397 3397 2.3507244698717587E-2
3398 3398 2.4429071016616025E-2
3399 3399 9.16627838222857E-3
3400 3400 3.899460400029124E-2
3401 3401 6.526596064760615E-2
3402 3402 6.526596064760615E-2
3403 3403 5.4396487605201375E-2
3404 3404 6.526596064760615E-2
3405 3405 6.526596064760615E-2
3406 3406 5.4396487605201375E-2
3407 3407 4.642982514626462E-2
3408 3408 5.301489180771616E-2
3409 3409 3.7834341095549506E-2
3410 3410 3.0922160382677335E-2
3411 3411 4.0045850760762974E-2
3412 3412 6.2082861785768245E-2
3413 3413 6.46131480630834E-2
3414 3414 6.2082861785768245E-2
3415 3415 6.46131480630834E-2
3416 3416 6.45381807608503E-2
3417 3417 4.280595282202674E-2
3418 3418 4.0127045667857734E-2
3419 3419 4.0692781641744454E-2
3420 3420 2.806099400055646E-2
3421 3421 6.526596064760615E-2
3422 3422 6.526596064760615E-2
3423 3423 5.4396487605201375E-2
3424 3424 5.249883959797993E-2
3425 3425 3.7986684421834525E-2
3426 3426 4.0547769754795376E-2
3427 3427 2.1137005975274497E-2
3428 3428 6.2082861785768245E-2
3429 3429 5.130890409198482E-2
3430 3430 5.4113348443501234E-2
3431 3431 5.471490895853764E-2
3432 3432 5.471469603098852E-2
3433 3433 6.526596064760615E-2
3434 3434 5.889976292393033E-2
3435 3435 5.0726650942394674E-2
3436 3436 5.023578015806016E-2
3437 3437 5.009133776408816E-2
3438 3438 4.068113878586047E-2
3439 3439 4.9317609079893784E-2
3440 3440 4.0145421111532846E-2
3441 3441 3.902780966593746E-2
3442 3442 5.335592161860098E-2
3443 3443 5.43661965186397E-2
3444 3444 2.8507703974982774E-2
3445 3445 5.1560925796494544E-2
3446 3446 3.3216785040548924E-2
3447 3447 3.3672664336708756E-2
3448 3448 3.881219666668066E-2
3449 3449 3.7619153035480954E-2
3450 3450 6.526596064760615E-2
3451 3451 6.526596064760615E-2
3452 3452 6.402401237764158E-2
3453 3453 6.526596064760615E-2
3454 3454 6.526596064760615E-2
3455 3455 5.4396487605201375E-2
3456 3456 4.642982514626462E-2
3457 3457 4.5502891887142176E-2
3458 3458 3.4519735576978405E-2
3459 3459 3.4744215404009834E-2
3460 3460 3.865551129682355E-2
3461 3461 2.8393783142346248E-2
3462 3462 3.593498738481673E-2
3463 3463 3.046669563715251E-2
3464 3464 2.7578650154849657E-2
3465 3465 3.591493316348239E-2
3466 3466 2.454907781444195E-2
3467 3467 3.730011843726032E-2
3468 3468 1.795551776076172E-2
3469 3469 3.558647578775335E-2
3470 3470 2.1992917504136313E-2
3471 3471 3.9162370470525926E-2
3472 3472 3.3254491355983504E-2
3473 3473 3.870392565721148E-2
3474 3474 3.733786457843381E-2
3475 3475 2.61641741794081E-2
3476 3476 3.507678132986605E-2
3477 3477 1.637100871146622E-2
3478 3478 2.1125789183627893E-2
3479 3479 4.954144644199614E-2
3480 3480 1.4151140547537333E-2
3481 3481 2.256810190309161E-2
3482 3482 3.387596052620744E-2
3483 3483 2.9532793359120554E-2
3484 3484 3.473471814268494E-2
3485 3485 3.344670590574791E-2
3486 3486 1.7730655060598514E-2
3487 3487 3.7518901207157784E-2
3488 3488 1.5979313465795605E-2
3489 3489 2.238875277886652E-2
3490 3490 3.8999475913007293E-2
3491 3491 3.580927294695683E-2
3492 3492 3.2437667710929895E-2
3493 3493 3.8387722916373414E-2
3494 3494 2.2908140502951375E-2
3495 3495 2.5815533075729084E-2
3496 3496 2.0474837119497394E-2
3497 3497 2.208808224008383E-2
3498 3498 1.947655863219326E-2
3499 3499 2.042176604311838E-2
3500 3500 1.9048492169231362E-2
3501 3501 1.9696670704231246E-2
3502 3502 1.9165240429062865E-2
3503 3503 2.212228411530783E-2
3504 3504 3.253345114025372E-2
3505 3505 6.526596064760615E-2
3506 3506 6.526596064760615E-2
3507 3507 5.4396487605201375E-2
3508 3508 6.526596064760615E-2
3509 3509 6.526596064760615E-2
3510 3510 5.4396487605201375E-2
3511 3511 5.416249997018742E-2
3512 3512 4.5742283197640975E-2
3513 3513 6.526596064760615E-2
3514 3514 6.526596064760615E-2
3515 3515 5.4396487605201375E-2
3516 3516 6.526596064760615E-2
3517 3517 6.526596064760615E-2
3518 3518 5.4396487605201375E-2
3519 3519 4.642982514626462E-2
3520 3520 5.301489180771616E-2
3521 3521 3.7834341095549506E-2
3522 3522 3.0922160382677335E-2
3523 3523 4.0045850760762974E-2
3524 3524 6.526596064760615E-2
3525 3525 6.526596064760615E-2
3526 3526 5.4396487605201375E-2
3527 3527 6.526596064760615E-2
3528 3528 6.526596064760615E-2
3529 3529 5.4396487605201375E-2
3530 3530 4.642982514626462E-2
3531 3531 5.301489180771616E-2
3532 3532 3.7834341095549506E-2
3533 3533 3.0922160382677335E-2
3534 3534 4.0045850760762974E-2
3535 3535 3.9752436336882226E-2
3536 3536 3.682248681686617E-2
3537 3537 2.4636299863979153E-2
3538 3538 2.6874291946344935E-2
3539 3539 5.308597153684638E-2
3540 3540 3.1418180761368604E-2
3541 3541 3.265446129071031E-2
3542 3542 2.7013977116638544E-2
3543 3543 3.683276589865643E-2
3544 3544 3.303033397227119E-2
3545 3545 2.2798906314121046E-2
3546 3546 2.3210785558961913E-2
3547 3547 3.854475048152695E-2
3548 3548 2.3427455093571376E-2
3549 3549 2.1662148889622923E-2
3550 3550 3.386665133305204E-2
3551 3551 2.9676221318555983E-2
3552 3552 3.4587438323831744E-2
3553 3553 2.0119887882285543E-2
3554 3554 2.1882759821716936E-2
3555 3555 3.10995792924887E-2
3556 3556 3.832590786163784E-2
3557 3557 3.621435577923344E-2
3558 3558 4.889885117000114E-2
3559 3559 1.92391879709388E-2
3560 3560 3.3946273980738934E-2
3561 3561 1.771894127893244E-2
3562 3562 3.372330313891088E-2
3563 3563 1.5931045116769595E-2
3564 3564 5.690984462078177E-3
3565 3565 3.3210894257330266E-2
3566 3566 3.508612572163446E-2
3567 3567 2.048926524425079E-2
3568 3568 3.868954252074054E-2
3569 3569 4.9626055554500344E-2
3570 3570 3.188167181332481E-2
3571 3571 2.5350191402080252E-2
3572 3572 1.9953927188768133E-2
3573 3573 3.380084934733331E-2
3574 3574 1.448815810816911E-2
3575 3575 2.125963841706024E-2
3576 3576 3.272892155015166E-2
3577 3577 3.367777292785533E-2
3578 3578 2.0493004483703676E-2
3579 3579 1.928294925145095E-2
3580 3580 1.9055388109996328E-2
3581 3581 1.9442655398964327E-2
3582 3582 2.0188573188389337E-2
3583 3583 2.2296793488141495E-2
3584 3584 3.330237272401922E-2
3585 3585 6.1772939326844864E-3
3586 3586 6.526596064760615E-2
3587 3587 6.526596064760615E-2
3588 3588 5.4396487605201375E-2
3589 3589 6.526596064760615E-2
3590 3590 6.526596064760615E-2
3591 3591 5.4396487605201375E-2
3592 3592 4.642982514626462E-2
3593 3593 5.301489180771616E-2
3594 3594 3.7834341095549506E-2
3595 3595 3.0922160382677335E-2
3596 3596 4.0045850760762974E-2
3597 3597 6.526596064760615E-2
3598 3598 6.526596064760615E-2
3599 3599 5.4396487605201375E-2
3600 3600 6.526596064760615E-2
3601 3601 6.526596064760615E-2
3602 3602 5.4396487605201375E-2
3603 3603 4.642982514626462E-2
3604 3604 5.301489180771617E-2
3605 3605 3.78343410955495E-2
3606 3606 3.0922160382677342E-2
3607 3607 4.0045850760762974E-2
3608 3608 3.9752436336882226E-2
3609 3609 3.682248681686617E-2
3610 3610 2.4636299863979163E-2
3611 3611 2.6874291946344952E-2
3612 3612 3.726993872435154E-2
3613 3613 3.682708475707143E-2
3614 3614 6.526596064760615E-2
3615 3615 5.501746174018367E-2
3616 3616 6.2082861785768245E-2
3617 3617 6.46131480630834E-2
3618 3618 6.2082861785768245E-2
3619 3619 6.46131480630834E-2
3620 3620 6.45381807608503E-2
3621 3621 4.280595282202674E-2
3622 3622 4.0127045667857734E-2
3623 3623 4.0692781641744454E-2
3624 3624 2.806099400055646E-2
3625 3625 5.250384471002132E-2
3626 3626 4.590825801539792E-2
3627 3627 6.526596064760615E-2
3628 3628 6.526596064760615E-2
3629 3629 5.4396487605201375E-2
3630 3630 6.526596064760615E-2
3631 3631 6.526596064760615E-2
3632 3632 5.4396487605201375E-2
3633 3633 4.642982514626462E-2
3634 3634 5.301489180771617E-2
3635 3635 3.78343410955495E-2
3636 3636 3.0922160382677342E-2
3637 3637 4.0045850760762974E-2
3638 3638 2.8671673224826742E-2
3639 3639 4.259841911636222E-2
3640 3640 5.1818946400519796E-2
3641 3641 3.3567977190575915E-2
3642 3642 3.752324467265025E-2
3643 3643 1.7973820696139092E-2
3644 3644 6.526596064760615E-2
3645 3645 6.526596064760615E-2
3646 3646 5.4396487605201375E-2
3647 3647 6.526596064760615E-2
3648 3648 6.526596064760615E-2
3649 3649 5.4396487605201375E-2
3650 3650 5.388882266798524E-2
3651 3651 3.8064968968498966E-2
3652 3652 4.1732646192950924E-2
3653 3653 4.542923573901349E-2
3654 3654 6.526596064760615E-2
3655 3655 6.526596064760615E-2
3656 3656 5.4396487605201375E-2
3657 3657 6.526596064760615E-2
3658 3658 5.501746174018367E-2
3659 3659 6.2082861785768245E-2
3660 3660 6.46131480630834E-2
3661 3661 6.2082861785768245E-2
3662 3662 6.46131480630834E-2
3663 3663 6.45381807608503E-2
3664 3664 4.280595282202674E-2
3665 3665 4.0127045667857734E-2
3666 3666 4.0692781641744454E-2
3667 3667 2.806099400055646E-2
3668 3668 5.250384471002132E-2
3669 3669 4.590825801539792E-2
3670 3670 5.397420539985147E-2
3671 3671 3.8064949039087775E-2
3672 3672 2.8676808773475428E-2
3673 3673 3.998495638014392E-2
3674 3674 3.1659473439784654E-2
3675 3675 4.0906067827106124E-2
3676 3676 2.7861854912643546E-2
3677 3677 3.99952420567263E-2
3678 3678 2.9480398107894788E-2
3679 3679 5.0812690721812104E-2
3680 3680 2.535146406685658E-2
3681 3681 1.4005022163885387E-2
3682 3682 3.611367278929999E-2
3683 3683 3.8705242274541536E-2
3684 3684 3.6970329397880336E-2
3685 3685 1.736829234702269E-2
3686 3686 3.52261672444667E-2
3687 3687 1.5726282788430617E-2
3688 3688 2.236679897406187E-2
3689 3689 2.12518553410209E-2
3690 3690 2.3157619506015328E-2
3691 3691 4.9642494773964485E-2
3692 3692 2.1434917014260972E-2
3693 3693 2.4058968584855196E-2
3694 3694 2.7728689029645162E-2
3695 3695 3.592221307616543E-2
3696 3696 6.742181309366542E-3
3697 3697 5.208469982177503E-2
3698 3698 3.887202968118338E-2
3699 3699 2.2208855643557672E-2
3700 3700 3.2473813904990115E-2
3701 3701 2.5770968921123957E-2
3702 3702 2.3092805467189653E-2
3703 3703 2.1288923059794324E-2
3704 3704 2.1547380601623402E-2
3705 3705 3.341142667022615E-2
3706 3706 2.2440122464684943E-2
3707 3707 3.591484278422805E-2
3708 3708 3.8682275440778555E-2
3709 3709 3.6199124059475896E-2
3710 3710 1.6151772038265424E-2
3711 3711 3.4212093800949216E-2
3712 3712 1.3465118379366302E-2
3713 3713 3.319479699250042E-2
3714 3714 2.0524968828841722E-2
3715 3715 3.327156806775639E-2
3716 3716 1.3148639907700132E-2
3717 3717 1.9753840194839584E-2
3718 3718 1.9340926092617308E-2
3719 3719 3.223178027582477E-2
3720 3720 1.8771054434115746E-2
3721 3721 3.151710035224023E-2
3722 3722 1.1391448449386892E-2
3723 3723 3.186409984902599E-2
3724 3724 3.273778099205485E-2
3725 3725 2.372475617104806E-2
3726 3726 1.829146877386179E-2
3727 3727 2.149110308154242E-2
3728 3728 1.8439866900784013E-2
3729 3729 2.200527298308555E-2
3730 3730 1.9172031596201584E-2
3731 3731 3.293080148744825E-2
3732 3732 2.2182143233409588E-2
3733 3733 1.918703113309184E-2
3734 3734 2.24884581338695E-2
3735 3735 3.328562911053164E-2
3736 3736 3.2540070776338323E-3
3737 3737 6.526596064760615E-2
3738 3738 6.526596064760615E-2
3739 3739 5.4396487605201375E-2
3740 3740 6.526596064760615E-2
3741 3741 6.526596064760615E-2
3742 3742 5.4396487605201375E-2
3743 3743 5.416249997018742E-2
3744 3744 4.5742283197640975E-2
3745 3745 6.526596064760615E-2
3746 3746 6.526596064760615E-2
3747 3747 5.4396487605201375E-2
3748 3748 6.526596064760615E-2
3749 3749 6.526596064760615E-2
3750 3750 5.4396487605201375E-2
3751 3751 4.642982514626462E-2
3752 3752 5.301489180771616E-2
3753 3753 3.7834341095549506E-2
3754 3754 3.0922160382677335E-2
3755 3755 4.0045850760762974E-2
3756 3756 6.526596064760615E-2
3757 3757 6.526596064760615E-2
3758 3758 5.4396487605201375E-2
3759 3759 6.526596064760615E-2
3760 3760 6.526596064760615E-2
3761 3761 5.4396487605201375E-2
3762 3762 4.642982514626462E-2
3763 3763 5.301489180771616E-2
3764 3764 3.7834341095549506E-2
3765 3765 3.0922160382677335E-2
3766 3766 4.0045850760762974E-2
3767 3767 3.9752436336882226E-2
3768 3768 3.682248681686617E-2
3769 3769 2.4636299863979163E-2
3770 3770 2.6874291946344952E-2
3771 3771 3.7137903650081676E-2
3772 3772 5.3078117127853965E-2
3773 3773 3.1408791147537765E-2
3774 3774 3.260750078410889E-2
3775 3775 2.6964237254742864E-2
3776 3776 3.682205997474361E-2
3777 3777 3.3014252667372075E-2
3778 3778 2.2490607706248927E-2
3779 3779 2.3032130710858023E-2
3780 3780 3.853550261480355E-2
3781 3781 2.3266706962470466E-2
3782 3782 3.907382688342201E-2
3783 3783 4.5144881233387446E-2
3784 3784 6.526596064760615E-2
3785 3785 6.526596064760615E-2
3786 3786 5.4396487605201375E-2
3787 3787 6.526596064760615E-2
3788 3788 6.526596064760615E-2
3789 3789 5.4396487605201375E-2
3790 3790 5.416249997018742E-2
3791 3791 4.5742283197640975E-2
3792 3792 6.526596064760615E-2
3793 3793 6.526596064760615E-2
3794 3794 5.4396487605201375E-2
3795 3795 6.526596064760615E-2
3796 3796 6.526596064760615E-2
3797 3797 5.4396487605201375E-2
3798 3798 4.642982514626462E-2
3799 3799 5.301489180771616E-2
3800 3800 3.7834341095549506E-2
3801 3801 3.0922160382677335E-2
3802 3802 4.0045850760762974E-2
3803 3803 6.526596064760615E-2
3804 3804 6.526596064760615E-2
3805 3805 5.4396487605201375E-2
3806 3806 6.526596064760615E-2
3807 3807 6.526596064760615E-2
3808 3808 5.4396487605201375E-2
3809 3809 4.642982514626462E-2
3810 3810 5.301489180771616E-2
3811 3811 3.7834341095549506E-2
3812 3812 3.0922160382677335E-2
3813 3813 4.0045850760762974E-2
3814 3814 3.9752436336882226E-2
3815 3815 3.682248681686617E-2
3816 3816 2.4636299863979153E-2
3817 3817 2.6874291946344935E-2
3818 3818 5.308597153684638E-2
3819 3819 3.1418180761368604E-2
3820 3820 3.265446129071031E-2
3821 3821 2.7013977116638544E-2
3822 3822 3.683276589865643E-2
3823 3823 3.303033397227119E-2
3824 3824 2.2798906314121046E-2
3825 3825 2.3210785558961913E-2
3826 3826 3.854475048152695E-2
3827 3827 2.3427455093571376E-2
3828 3828 4.514801370168619E-2
3829 3829 5.221770802693323E-2
3830 3830 3.3580344223564325E-2
3831 3831 2.7300924438935947E-2
3832 3832 3.6768647121348426E-2
3833 3833 2.3247456730794324E-2
3834 3834 2.240034553143029E-2
3835 3835 2.4191535222988055E-2
3836 3836 3.404164878552309E-2
3837 3837 2.1948606534304096E-2
3838 3838 3.3873435484768365E-2
3839 3839 2.9480992977392262E-2
3840 3840 3.467723336627131E-2
3841 3841 3.184371808965132E-2
3842 3842 2.3420031122688135E-2
3843 3843 2.694936400238302E-2
3844 3844 3.683868144572884E-2
3845 3845 2.1912594257956948E-2
3846 3846 2.0481947635821916E-2
3847 3847 3.171361834496497E-2
3848 3848 1.4399912243797719E-2
3849 3849 3.167750238224695E-2
3850 3850 1.2659767181673635E-2
3851 3851 2.1202907953586935E-2
3852 3852 3.186476746118091E-2
3853 3853 1.1910811395995763E-2
3854 3854 3.368667754506826E-2
3855 3855 2.929245468028546E-2
3856 3856 3.4019584361452936E-2
3857 3857 3.0900307898180164E-2
3858 3858 1.1438620918044E-2
3859 3859 3.165055755566778E-2
3860 3860 2.748463073232079E-2
3861 3861 6.755467532096761E-3
3862 3862 2.28737323808624E-2
3863 3863 4.140706386865713E-2
3864 3864 3.656997655193105E-2
3865 3865 1.4906490748734694E-2
3866 3866 3.30114379243965E-2
3867 3867 1.4408661609810677E-2
3868 3868 3.3276475459128874E-2
3869 3869 1.4511694183664811E-2
3870 3870 3.340302277362147E-3
3871 3871 3.425351697367124E-2
3872 3872 1.996949067107508E-2
3873 3873 3.266344727088926E-2
3874 3874 2.916723820289415E-2
3875 3875 2.4654632757692092E-2
3876 3876 1.9349564331358895E-2
3877 3877 3.162780424994865E-2
3878 3878 1.4039608698162977E-2
3879 3879 2.098185698188106E-2
3880 3880 3.21582386261918E-2
3881 3881 3.338973059371252E-2
3882 3882 2.006261024671147E-2
3883 3883 3.127012747262413E-2
3884 3884 1.1857761109630627E-2
3885 3885 1.8848719071007294E-2
3886 3886 1.8704938993119227E-2
3887 3887 1.9144276192621646E-2
3888 3888 1.9877801080078618E-2
3889 3889 3.1152246575077827E-2
3890 3890 1.0953012443170703E-2
3891 3891 2.207872116433029E-2
3892 3892 3.315761410423028E-2
3893 3893 3.1198307943931858E-2
3894 3894 1.091460132827856E-2
3895 3895 3.129464703914632E-2
3896 3896 1.0923822148150625E-2
3897 3897 3.153691714545173E-2
3898 3898 1.094628895267375E-2
3899 3899 3.320445442029025E-2
3900 3900 3.197787356280584E-2
3901 3901 1.0986969089862037E-2
3902 3902 3.8688407316157344E-2
3903 3903 4.809679287648557E-2
3904 3904 1.2351003534457122E-2
3905 3905 3.310807170547493E-2
3906 3906 1.1471879550162323E-2
3907 3907 6.10288222240438E-3
3908 3908 2.176124404619792E-2
3909 3909 3.383684704370751E-2
3910 3910 2.9452697838728538E-2
3911 3911 3.461653668538275E-2
3912 3912 3.172836093843296E-2
3913 3913 2.3393190892984493E-2
3914 3914 2.6943290501176276E-2
3915 3915 3.683214485602741E-2
3916 3916 2.1640651765796742E-2
3917 3917 2.0420201216943955E-2
3918 3918 3.159246688561692E-2
3919 3919 1.4392196286932885E-2
3920 3920 3.127672369596881E-2
3921 3921 1.2607412463106817E-2
3922 3922 3.115653949800453E-2
3923 3923 1.1769983580061592E-2
3924 3924 3.1111097710404653E-2
3925 3925 1.1345370628870425E-2
3926 3926 3.1094496814940017E-2
3927 3927 1.1125926003689321E-2
3928 3928 3.109121799683295E-2
3929 3929 3.1107662682053356E-2
3930 3930 2.2494805661577754E-2
3931 3931 3.116927606861116E-2
3932 3932 1.5008700556955162E-2
3933 3933 3.133441151790852E-2
3934 3934 1.2818971916581708E-2
3935 3935 3.179484769980699E-2
3936 3936 1.2040840480604347E-2
3937 3937 3.294642550429858E-2
3938 3938 1.2941808768626184E-2
3939 3939 2.987834943396843E-3
3940 3940 3.425285133546726E-2
3941 3941 1.994103063011283E-2
3942 3942 3.2657948081926694E-2
3943 3943 2.91642001000745E-2
3944 3944 2.465282733739246E-2
3945 3945 1.9299966382784913E-2
3946 3946 3.1598165255064335E-2
3947 3947 1.4036687797143014E-2
3948 3948 2.0977558258744346E-2
3949 3949 3.204088745775707E-2
3950 3950 3.317629509973382E-2
3951 3951 1.9605558248555276E-2
3952 3952 3.1187687705087716E-2
3953 3953 1.1854658586332951E-2
3954 3954 1.861992539289655E-2
3955 3955 1.8284119704979805E-2
3956 3956 1.8667576331690954E-2
3957 3957 1.9483841436734473E-2
3958 3958 3.0988960990344594E-2
3959 3959 1.0864678645286483E-2
3960 3960 1.8708955653469146E-2
3961 3961 3.10027836832351E-2
3962 3962 1.0757923732032099E-2
3963 3963 3.1727120737844616E-2
3964 3964 3.418827054841144E-2
3965 3965 3.1084336589374505E-2
3966 3966 1.0728886118380257E-2
3967 3967 3.1320660979387856E-2
3968 3968 1.0727015248323094E-2
3969 3969 3.320401095066571E-2
3970 3970 3.175359210517661E-2
3971 3971 1.075057626610976E-2
3972 3972 3.868790281157859E-2
3973 3973 3.696840733817115E-2
3974 3974 3.0999368944349445E-2
3975 3975 1.065728670224563E-2
3976 3976 2.4360140192076992E-2
3977 3977 4.064032312355191E-3
3978 3978 1.7651203000151213E-2
3979 3979 3.9579272092549654E-2
3980 3980 4.409507855375293E-2
3981 3981 2.4962903207858836E-2
3982 3982 2.899540220559917E-2
3983 3983 3.432616461640298E-2
3984 3984 1.7698101597150878E-2
3985 3985 3.2482583661593366E-2
3986 3986 1.4164097557127912E-2
3987 3987 3.1697721074377364E-2
3988 3988 1.2637248595709282E-2
3989 3989 3.1301760496617856E-2
3990 3990 1.183189975080339E-2
3991 3991 3.10960394003355E-2
3992 3992 1.1364561381596408E-2
3993 3993 3.099473653333385E-2
3994 3994 1.1082190350334685E-2
3995 3995 3.095978452354088E-2
3996 3996 1.0911043639352688E-2
3997 3997 3.0987974922716318E-2
3998 3998 1.0812775743953326E-2
3999 3999 3.1130482709969706E-2
4000 4000 1.0776780313598133E-2
4001 4001 3.1624853764637834E-2
4002 4002 1.0872771398923793E-2
4003 4003 3.2618035712561756E-2
4004 4004 1.2252351617553699E-2
4005 4005 1.8125954730996593E-2
4006 4006 1.8136116357721638E-2
4007 4007 1.812553866290328E-2
4008 4008 1.8135650656321948E-2
4009 4009 1.8125308428664503E-2
4010 4010 1.8135497953871198E-2
4011 4011 1.8125250146909234E-2
4012 4012 1.8135949929624036E-2
4013 4013 1.812548482291851E-2
4014 4014 1.81375884514373E-2
4015 4015 1.812651988597055E-2
4016 4016 1.814207846159125E-2
4017 4017 1.8130590375586182E-2
4018 4018 1.8155306554903456E-2
4019 4019 1.8151984742773897E-2
4020 4020 1.8205717754518423E-2
4021 4021 1.837005528043068E-2
4022 4022 1.857081342512665E-2
4023 4023 3.1361964249936786E-2
4024 4024 1.9237032277824574E-2
4025 4025 1.8199273626992876E-2
4026 4026 1.878168168670723E-2
4027 4027 1.856024564635759E-2
4028 4028 2.188692551741513E-2
4029 4029 3.252150872580446E-2
4030 4030 3.5907347874200184E-2
4031 4031 3.8689678955943996E-2
4032 4032 3.662023383155047E-2
4033 4033 1.626753802846048E-2
4034 4034 3.4834139204343216E-2
4035 4035 1.5171040810842688E-2
4036 4036 1.975175760449032E-2
4037 4037 2.051381532634525E-2
4038 4038 2.216692397852805E-2
4039 4039 1.9849782149957595E-2
4040 4040 3.1615773168588164E-2
4041 4041 1.1276974570688705E-2
4042 4042 3.195103529087621E-2
4043 4043 1.1289523368158407E-2
4044 4044 3.2795972223852714E-2
4045 4045 1.2581239624703628E-2
4046 4046 1.8209658910033556E-2
4047 4047 1.83596633734461E-2
4048 4048 1.822254311802004E-2
4049 4049 1.8497609090059916E-2
4050 4050 1.8557202763173433E-2
4051 4051 3.1493313592022724E-2
4052 4052 1.9615700889511055E-2
4053 4053 1.8562469443746076E-2
4054 4054 2.124600687690381E-2
4055 4055 1.859206098324465E-2
4056 4056 3.259624908176174E-2
4057 4057 1.20987830642659E-2
4058 4058 1.9403436791139105E-2
4059 4059 1.8516965265258183E-2
4060 4060 3.1927476300837546E-2
4061 4061 1.8157156216564763E-2
4062 4062 3.123541239698188E-2
4063 4063 1.0764459922577168E-2
4064 4064 3.172376902727844E-2
4065 4065 1.0978932223652019E-2
4066 4066 3.265554410152785E-2
4067 4067 1.2363783943258154E-2
4068 4068 1.8130328789433388E-2
4069 4069 1.814977623822777E-2
4070 4070 1.8156144610005337E-2
4071 4071 1.8359574037402543E-2
4072 4072 1.8447411542472866E-2
4073 4073 3.1306861734858075E-2
4074 4074 1.939708599878166E-2
4075 4075 1.7494741415723603E-2
4076 4076 1.8447485515317007E-2
4077 4077 3.130844007202953E-2
4078 4078 1.9450320915880146E-2
4079 4079 1.749605776722976E-2
4080 4080 1.844859358895029E-2
4081 4081 3.1466063079138074E-2
4082 4082 3.309660362723984E-2
4083 4083 1.9239226449286124E-2
4084 4084 3.179346152828797E-2
4085 4085 1.745717453080703E-2
4086 4086 1.7548842473402135E-2
4087 4087 1.8161901336640574E-2
4088 4088 1.817353989896726E-2
4089 4089 3.345596392019891E-2
4090 4090 2.5753054131671425E-2
4091 4091 1.8299558339417002E-2
4092 4092 1.828247793387291E-2
4093 4093 3.434582136464431E-2
4094 4094 1.9907315251679904E-2
4095 4095 3.268855374838171E-2
4096 4096 1.6079551088385834E-2
4097 4097 1.9254476366796267E-2
4098 4098 1.8767942509967623E-2
4099 4099 3.2915053600211006E-2
4100 4100 2.920678563180348E-2
4101 4101 2.4633161635154808E-2
4102 4102 1.899336047857596E-2
4103 4103 3.444649495508184E-2
4104 4104 3.132905184060275E-2
4105 4105 1.3232425598740067E-2
4106 4106 3.2254207368552196E-2
4107 4107 2.117047571637106E-2
4108 4108 3.212946832287901E-2
4109 4109 1.4075519527537985E-2
4110 4110 2.06678727777136E-2
4111 4111 1.854074239104189E-2
4112 4112 3.224614762836469E-2
4113 4113 2.820433139148104E-2
4114 4114 7.856129494820594E-3
4115 4115 3.367520816733437E-2
4116 4116 2.929416819890248E-2
4117 4117 3.403435606337575E-2
4118 4118 3.1060594333319952E-2
4119 4119 1.1755159278370888E-2
4120 4120 1.9395716892145455E-2
4121 4121 1.8658921189241867E-2
4122 4122 3.1070859699085015E-2
4123 4123 1.1193585893464296E-2
4124 4124 3.15163387724938E-2
4125 4125 2.282005449507079E-2
4126 4126 2.4433440174952897E-2
4127 4127 6.396340357526958E-3
4128 4128 3.145405024441739E-2
4129 4129 1.8632324787929692E-2
4130 4130 3.101396356971227E-2
4131 4131 1.0986944762372684E-2
4132 4132 1.8130363933404506E-2
4133 4133 1.8142610196192167E-2
4134 4134 1.8962274496055784E-2
4135 4135 1.860916075634444E-2
4136 4136 3.1021121888164336E-2
4137 4137 1.0862674745993246E-2
4138 4138 1.813670091076762E-2
4139 4139 1.814450960384343E-2
4140 4140 3.1618683377317186E-2
4141 4141 1.9851659997730593E-2
4142 4142 3.1179117231878748E-2
4143 4143 1.0794359139350864E-2
4144 4144 1.8153991534028482E-2
4145 4145 1.8160869109587956E-2
4146 4146 1.9061429603091602E-2
4147 4147 2.1327426710082614E-2
4148 4148 2.138905009506123E-2
4149 4149 3.1379048049792246E-2
4150 4150 1.0752567162747261E-2
4151 4151 1.8203465920550627E-2
4152 4152 1.8188022879558077E-2
4153 4153 1.9024867916296852E-2
4154 4154 2.9759130740281158E-2
4155 4155 2.8549167926056298E-2
4156 4156 3.2815279283413615E-2
4157 4157 2.902304428170142E-2
4158 4158 1.0383085329267802E-2
4159 4159 1.846834063480299E-2
4160 4160 1.8476573126510937E-2
4161 4161 7.88941225070069E-3
4162 4162 1.6460693438092804E-2
4163 4163 2.5223468228848297E-3
4164 4164 3.1327035559232504E-2
4165 4165 1.850859480406185E-2
4166 4166 1.9408322645899378E-2
4167 4167 1.8496277716209607E-2
4168 4168 3.191381127180252E-2
4169 4169 3.309291616753508E-2
4170 4170 2.792181803789439E-2
4171 4171 3.1077420313878137E-2
4172 4172 1.6718773355024648E-2
4173 4173 3.090462830491793E-2
4174 4174 1.3440217282273846E-2
4175 4175 3.0871361708474536E-2
4176 4176 1.2084365498527207E-2
4177 4177 3.0862764891712025E-2
4178 4178 1.1421691203620524E-2
4179 4179 3.086130349637154E-2
4180 4180 1.1071904835365345E-2
4181 4181 3.0864231986829842E-2
4182 4182 1.0880979961390855E-2
4183 4183 3.087448357689235E-2
4184 4184 1.0775868016962866E-2
4185 4185 3.090415731742442E-2
4186 4186 1.0719372154206689E-2
4187 4187 3.0992575176315085E-2
4188 4188 1.0695648824288879E-2
4189 4189 3.126669737956464E-2
4190 4190 1.0726828933056385E-2
4191 4191 3.222669971962209E-2
4192 4192 1.1126360080441244E-2
4193 4193 3.1295754236876944E-2
4194 4194 1.8489365708549907E-2
4195 4195 1.8159290103469346E-2
4196 4196 1.8163026320893328E-2
4197 4197 1.840755400797658E-2
4198 4198 1.8450004304617653E-2
4199 4199 3.145532648030923E-2
4200 4200 1.849937621296441E-2
4201 4201 3.129355324822214E-2
4202 4202 1.848681598965648E-2
4203 4203 1.8136866519296774E-2
4204 4204 1.8131404295951715E-2
4205 4205 1.8159928504947572E-2
4206 4206 1.8156824560433008E-2
4207 4207 1.837215509320676E-2
4208 4208 1.8448249569947762E-2
4209 4209 3.1296793147422695E-2
4210 4210 1.8488100532766914E-2
4211 4211 1.8222540265376723E-2
4212 4212 1.81593709908351E-2
4213 4213 1.846728696940994E-2
4214 4214 1.8446809259884563E-2
4215 4215 3.132593592839759E-2
4216 4216 1.8504827606564484E-2
4217 4217 1.930040518808213E-2
4218 4218 1.8470254779462365E-2
4219 4219 3.1901245848298926E-2
4220 4220 1.8217560420113906E-2
4221 4221 3.2789861442721814E-2
4222 4222 1.1654016307588888E-2
4223 4223 2.8879649823411336E-2
4224 4224 1.2686352990986659E-2
4225 4225 2.4215773837642793E-3
